2253
scaling: fractional -> Cartesian with DFT-FE cell-centered origin (Bohr); centroid=(31.307072,31.307072,48.716927)
O       -23.261598216158      -28.479443292747      -35.010576255426
O       -23.699009351569      -23.261598216158      -35.010576255426
O       -28.479443292747      -28.916854428159      -35.010576255426
O       -28.916854428159      -23.699009351569      -35.010576255426
O       -26.089226635229      -26.089226635229      -38.716926912731
O       -31.307071711818      -31.307071711818      -38.716926912731
O       -31.307071711818      -31.307071711818      -31.304226572460
O       -26.089226635229      -26.089226635229      -31.304226572460
O       -23.252221122039      -28.472583913335      -20.142879539108
O       -23.701745589637      -23.252869804564      -20.139492738362
O       -28.471485035118      -28.923743862359      -20.144508633137
O       -28.922601780383      -23.704498107382      -20.144529094246
O       -26.089226635229      -26.089226635229      -23.891526232190
O       -31.307071711818      -31.307071711818      -23.891526232190
O       -28.479443292747      -23.261598216158      -27.597875915156
O       -28.916854428159      -28.479443292747      -27.597875915156
O       -23.261598216158      -23.699009351569      -27.597875915156
O       -23.699009351569      -28.916854428159      -27.597875915156
O       -31.307071711818      -31.307071711818      -16.399119153775
O       -26.090317373607      -26.088288049219      -16.399878163494
O       -23.228362002687      -28.446082477131       -5.112138961121
O       -23.734510944749      -23.227440322496       -5.113399755185
O       -28.445478876788      -28.950801938299       -5.118167193634
O       -28.951659125922      -23.732919919365       -5.118636824807
O       -26.084801693713      -26.089432009619       -8.905795222800
O       -31.307071711818      -31.307071711818       -8.905406461725
O       -28.468348066532      -23.249933201238      -12.649073310558
O       -28.925654846017      -28.469187096054      -12.649697861558
O       -23.248537531981      -23.706126075111      -12.654552990475
O       -23.706464817627      -28.925863977256      -12.654728371411
O       -31.307071711818      -31.307071711818       -1.376550353077
O       -26.094184423105      -26.090614790789       -1.374663059336
O       -23.261598216158      -18.043753139568      -35.010576255426
O       -23.699009351569      -12.825907436838      -35.010576255426
O       -28.479443292747      -18.481164274980      -35.010576255426
O       -28.916854428159      -13.263318572250      -35.010576255426
O       -26.089226635229      -15.653535855909      -38.716926912731
O       -31.307071711818      -20.871380932498      -38.716926912731
O       -31.307071711818      -20.871380932498      -31.304226572460
O       -26.089226635229      -15.653535855909      -31.304226572460
O       -23.249486136254      -18.033624049587      -20.141929559037
O       -23.701054955635      -12.814919280808      -20.137715544875
O       -28.469996696929      -18.486381285410      -20.142375806085
O       -28.922708850569      -13.268452932010      -20.142651543891
O       -26.089226635229      -15.653535855909      -23.891526232190
O       -31.307071711818      -20.871380932498      -23.891526232190
O       -28.479443292747      -12.825907436838      -27.597875915156
O       -28.916854428159      -18.043753139568      -27.597875915156
O       -23.261598216158      -13.263318572250      -27.597875915156
O       -23.699009351569      -18.481164274980      -27.597875915156
O       -31.306408628039      -20.868210778417      -16.398341631625
O       -26.085533653050      -15.648042717106      -16.396438748467
O       -23.229711337478      -18.010096159054       -5.106782047859
O       -23.731298839191      -12.787903782487       -5.106487797622
O       -28.444887799274      -18.514065502784       -5.118128220092
O       -28.953062308876      -13.297745706728       -5.117935301063
O       -26.082201328337      -15.652043134730       -8.901842331366
O        31.306592713621      -20.870766687751       -8.904784833740
O       -28.466235465333      -12.812308897169      -12.646217524313
O       -28.923039453246      -18.030848990750      -12.647192837186
O       -23.240590544898      -13.269177377650      -12.640982403368
O       -23.702709221304      -18.486371893289      -12.653065175533
O       -31.306289035025      -20.870922596968       -1.376262923209
O       -26.098761516989      -15.654381772987       -1.372397722243
O       -23.261598216158       -7.608062360249      -35.010576255426
O       -23.699009351569       -2.390217283659      -35.010576255426
O       -28.479443292747       -8.045473495660      -35.010576255426
O       -28.916854428159       -2.827628419071      -35.010576255426
O       -26.089226635229       -5.217845076589      -38.716926912731
O       -31.307071711818      -10.435690779320      -38.716926912731
O       -31.307071711818      -10.435690779320      -31.304226572460
O       -26.089226635229       -5.217845076589      -31.304226572460
O       -23.246794354228       -7.598790457890      -20.135802918332
O       -23.702222083268       -2.380125762164      -20.139259871452
O       -28.468716863837       -8.051624082969      -20.139985753661
O       -28.923267994869       -2.835142742423      -20.141691820434
O       -26.089226635229       -5.217845076589      -23.891526232190
O       -31.307071711818      -10.435690779320      -23.891526232190
O       -28.479443292747       -2.390217283659      -27.597875915156
O       -28.916854428159       -7.608062360249      -27.597875915156
O       -23.261598216158       -2.827628419071      -27.597875915156
O       -23.699009351569       -8.045473495660      -27.597875915156
O        31.306505053820      -10.431118694567      -16.395386462850
O       -26.082808059386       -5.210730857613      -16.392569650147
O       -23.218233538847       -7.568401935663       -5.087077025340
O       -23.742377159587       -2.344963537641       -5.101961020791
O       -28.438744099521       -8.083076419493       -5.114003845076
O       -28.960700608232       -2.869199827314       -5.117429619363
O       -26.077482100347       -5.223576775278       -8.895042422734
O        31.306654075481      -10.435085300553       -8.901974841407
O       -28.464256858401       -2.379743189748      -12.639984680709
O       -28.922946158172       -7.595592753586      -12.644208438255
O       -23.236222582252       -2.837372432071      -12.628990244687
O       -23.700557799336       -8.054183749152      -12.651102857725
O       -31.306943352824      -10.433924434334       -1.374398039255
O       -26.105719826748       -5.214951677022       -1.366675432031
O       -23.261598216158        2.827628419071      -35.010576255426
O       -23.699009351569        8.045473495660      -35.010576255426
O       -28.479443292747        2.390217283659      -35.010576255426
O       -28.916854428159        7.608062360249      -35.010576255426
O       -26.089226635229        5.217845076589      -38.716926912731
O       -31.307071711818        0.000000000000      -38.716926912731
O       -31.307071711818        0.000000000000      -31.304226572460
O       -26.089226635229        5.217845076589      -31.304226572460
O       -23.245515147278        2.834477780220      -20.131146554477
O       -23.703115587095        8.053042919459      -20.142563853423
O       -28.468644857572        2.381960982708      -20.139689554746
O       -28.923358785377        7.598786074900      -20.141989968026
O       -26.089226635229        5.217845076589      -23.891526232190
O       -31.307071711818        0.000000000000      -23.891526232190
O       -28.479443292747        8.045473495660      -27.597875915156
O       -28.916854428159        2.827628419071      -27.597875915156
O       -23.261598216158        7.608062360249      -27.597875915156
O       -23.699009351569        2.390217283659      -27.597875915156
O       -31.307071711818        0.000000000000      -16.394587505252
O       -26.084320817092        5.222549277185      -16.393119177081
O       -23.210949635542        2.868956258296       -5.077390151631
O       -23.739237686436        8.085002430545       -5.108920720942
O       -28.435180102478        2.347391714123       -5.108749237360
O       -28.954375327464        7.567332486093       -5.118198372467
O       -26.076651836805        5.204882696618       -8.894826119580
O       -31.307071711818        0.000000000000       -8.899320743239
O       -28.464519211662        8.052081166216      -12.639814171465
O       -28.923468360128        2.836860248378      -12.645363029419
O       -23.238168629830        7.591662463803      -12.632897342210
O       -23.700072539725        2.375685167112      -12.654046334437
O       -31.307071711818        0.000000000000       -1.372961864255
O       -26.102200911888        5.227456347605       -1.365711811220
O       -23.261598216158       13.263318572250      -35.010576255426
O       -23.699009351569       18.481164274980      -35.010576255426
O       -28.479443292747       12.825907436838      -35.010576255426
O       -28.916854428159       18.043753139568      -35.010576255426
O       -26.089226635229       15.653535855909      -38.716926912731
O       -31.307071711818       10.435690779320      -38.716926912731
O       -31.307071711818       10.435690779320      -31.304226572460
O       -26.089226635229       15.653535855909      -31.304226572460
O       -23.247928296365       13.266838739393      -20.133843523540
O       -23.702355451394       18.485288042466      -20.144485249012
O       -28.470634735050       12.816331855884      -20.141883765126
O       -28.922832826573       18.034775523684      -20.142664210292
O       -26.089226635229       15.653535855909      -23.891526232190
O       -31.307071711818       10.435690779320      -23.891526232190
O       -28.479443292747       18.481164274980      -27.597875915156
O       -28.916854428159       13.263318572250      -27.597875915156
O       -23.261598216158       18.043753139568      -27.597875915156
O       -23.699009351569       12.825907436838      -27.597875915156
O       -31.306505053820       10.431118694567      -16.395386462850
O       -26.087006337703       15.652323019951      -16.397172425384
O       -23.223288378645       13.298986719051       -5.099375126321
O       -23.734058244492       18.514802471252       -5.116394871840
O       -28.443621115153       12.788320792682       -5.112090244195
O       -28.950843889775       18.008110664566       -5.118976868956
O       -26.084520556209       15.645583233553       -8.902532163048
O       -31.306654075481       10.435085300553       -8.901974841407
O       -28.468107002080       18.486773876089      -12.647054481114
O       -28.925149549879       13.269278186421      -12.649248691494
O       -23.246294693363       18.027952460476      -12.647120736135
O       -23.701618482926       12.809426768147      -12.650614714119
O        31.306943352824       10.433924434334       -1.374398039255
O       -26.098496033021       15.660992574249       -1.371659173634
O       -23.261598216158       23.699009351569      -35.010576255426
O       -23.699009351569       28.916854428159      -35.010576255426
O       -28.479443292747       23.261598216158      -35.010576255426
O       -28.916854428159       28.479443292747      -35.010576255426
O       -26.089226635229       26.089226635229      -38.716926912731
O       -31.307071711818       20.871380932498      -38.716926912731
O       -31.307071711818       20.871380932498      -31.304226572460
O       -26.089226635229       26.089226635229      -31.304226572460
O       -23.251189240955       23.702811282358      -20.139476174607
O       -23.703405490579       28.922322521304      -20.143512859155
O       -28.471870112100       23.252849768038      -20.143953260173
O       -28.923183465776       28.471847571008      -20.144125718093
O       -26.089226635229       26.089226635229      -23.891526232190
O       -31.307071711818       20.871380932498      -23.891526232190
O       -28.479443292747       28.916854428159      -27.597875915156
O       -28.916854428159       23.699009351569      -27.597875915156
O       -23.261598216158       28.479443292747      -27.597875915156
O       -23.699009351569       23.261598216158      -27.597875915156
O        31.306408628039       20.868210778417      -16.398341631625
O       -26.090103859378       26.087897336964      -16.399737858745
O       -23.227646949169       23.732491012482       -5.113580982152
O       -23.734768288879       28.950703007952       -5.115813191735
O       -28.445609114206       23.226685195926       -5.115464378539
O       -28.951116887440       28.444626072155       -5.117617666700
O       -26.086995693299       26.086104694038       -8.905743582858
O       -31.306592713621       20.870766687751       -8.904784833740
O       -28.469246579490       28.925339896875      -12.649735860761
O       -28.925872743236       23.705960147631      -12.650690712525
O       -23.250983240423       28.467416368078      -12.653557216493
O       -23.705261999932       23.247829366019      -12.654100897395
O        31.306289035025       20.870922596968       -1.376262923209
O       -26.091223400263       26.090006807456       -1.374855004027
O       -12.825907436838      -28.479443292747      -35.010576255426
O       -13.263318572250      -23.261598216158      -35.010576255426
O       -18.043753139568      -28.916854428159      -35.010576255426
O       -18.481164274980      -23.699009351569      -35.010576255426
O       -15.653535855909      -26.089226635229      -38.716926912731
O       -20.871380932498      -31.307071711818      -38.716926912731
O       -20.871380932498      -31.307071711818      -31.304226572460
O       -15.653535855909      -26.089226635229      -31.304226572460
O       -12.815809027786      -28.471654093305      -20.142597955271
O       -13.262746278979      -23.248181883646      -20.127006590044
O       -18.033324753981      -28.924109528957      -20.145884399148
O       -18.483812853247      -23.703783053864      -20.145917526658
O       -15.653535855909      -26.089226635229      -23.891526232190
O       -20.871380932498      -31.307071711818      -23.891526232190
O       -18.043753139568      -23.261598216158      -27.597875915156
O       -18.481164274980      -28.479443292747      -27.597875915156
O       -12.825907436838      -23.699009351569      -27.597875915156
O       -13.263318572250      -28.916854428159      -27.597875915156
O       -20.865143937672       31.305799392424      -16.399363712747
O       -15.658320828749      -26.091810094786      -16.399405609304
O       -12.791886042009      -28.448206975017       -5.115457558170
O       -13.303913199855      -23.231843975203       -5.099168566552
O       -18.011097359207      -28.954077284141       -5.129750130131
O       -18.517484235014      -23.735905987865       -5.123110987357
O       -15.641899643495      -26.085294467022       -8.906749100225
O       -20.879215214123       31.306208262780       -8.906532797070
O       -18.029908526316      -23.249276378873      -12.645353286033
O       -18.486190938414      -28.471530117301      -12.645389336559
O       -12.809253953111      -23.704136823774      -12.667104419475
O       -13.268287630672      -28.925828287194      -12.653206454621
O       -20.863497811841       31.302295504958       -1.379312602822
O       -15.669570711898      -26.107679649437       -1.375719242307
O       -12.825907436838      -18.043753139568      -35.010576255426
O       -13.263318572250      -12.825907436838      -35.010576255426
O       -18.043753139568      -18.481164274980      -35.010576255426
O       -18.481164274980      -13.263318572250      -35.010576255426
O       -15.653535855909      -15.653535855909      -38.716926912731
O       -20.871380932498      -20.871380932498      -38.716926912731
O       -20.871380932498      -20.871380932498      -31.304226572460
O       -15.653535855909      -15.653535855909      -31.304226572460
O       -12.808835690633      -18.028005056356      -20.134770119486
O       -13.264554575441      -12.809567649970      -20.128006261380
O       -18.027829736754      -18.486495243151      -20.142078632832
O       -18.484345073466      -13.269852358116      -20.145840553914
O       -15.653535855909      -15.653535855909      -23.891526232190
O       -20.871380932498      -20.871380932498      -23.891526232190
O       -18.043753139568      -12.825907436838      -27.597875915156
O       -18.481164274980      -18.043753139568      -27.597875915156
O       -12.825907436838      -13.263318572250      -27.597875915156
O       -13.263318572250      -18.481164274980      -27.597875915156
O       -20.859134232186      -20.863656851765      -16.396072397178
O       -15.656193200156      -15.644258944419      -16.389215976912
O       -12.795813827226      -18.008887079944       -5.078788327428
O       -13.305008947365      -12.768135871267       -5.046669257642
O       -18.011188149715      -18.513209567443       -5.125125919446
O       -18.515671555562      -13.299337358254       -5.119991155370
O       -15.616710599737      -15.644335333674       -8.885588415935
O       -20.880031076412      -20.872381506510       -8.902929693170
O       -18.017355016701      -12.807297261129      -12.619884076744
O       -18.478975910668      -18.028304978103      -12.627809346383
O       -12.793364361935      -13.272980560721      -12.647676109099
O       -13.262586612913      -18.484216714472      -12.654111615119
O       -20.864777018791      -20.880570184187       -1.376171335387
O       -15.697417099903      -15.667697922869       -1.353636833764
O       -12.825907436838       -7.608062360249      -35.010576255426
O       -13.263318572250       -2.390217283659      -35.010576255426
O       -18.043753139568       -8.045473495660      -35.010576255426
O       -18.481164274980       -2.827628419071      -35.010576255426
O       -15.653535855909       -5.217845076589      -38.716926912731
O       -20.871380932498      -10.435690779320      -38.716926912731
O       -20.871380932498      -10.435690779320      -31.304226572460
O       -15.653535855909       -5.217845076589      -31.304226572460
O       -12.804010018600       -7.589577412827      -20.128813013687
O       -13.261066341511       -2.374523674752      -20.126093634837
O       -18.024913796095       -8.054493689162      -20.137932822369
O       -18.484773354207       -2.837359909242      -20.149293609680
O       -15.653535855909       -5.217845076589      -23.891526232190
O       -20.871380932498      -10.435690779320      -23.891526232190
O       -18.043753139568       -2.390217283659      -27.597875915156
O       -18.481164274980       -7.608062360249      -27.597875915156
O       -12.825907436838       -2.827628419071      -27.597875915156
O       -13.263318572250       -8.045473495660      -27.597875915156
O       -20.850449650493      -10.434351462792      -16.387279966244
O       -15.657313993323       -5.202376878598      -16.385698614803
O       -12.740144844590       -7.520905977169       -4.912727913658
O       -13.365481060942       -2.285909008271       -5.046731615308
O       -17.979956214976       -8.087890820981       -5.083155312739
O       -18.542620056750       -2.888838127258       -5.135136273549
O       -15.575882421376       -5.252158879468       -8.864061380356
O       -20.872502977948      -10.420879403693       -8.885568929164
O       -18.010494385006       -2.379266069975      -12.587889722291
O       -18.477424332193       -7.590093979510      -12.620865235649
O       -12.785471849156       -2.847932307359      -12.636144812545
O       -13.262199657507       -8.058189175907      -12.665883573291
O       -20.854421891752      -10.458585640863       -1.361944044108
O       -15.751950888118       -5.150295060239       -1.301079064542
O       -12.825907436838        2.827628419071      -35.010576255426
O       -13.263318572250        8.045473495660      -35.010576255426
O       -18.043753139568        2.390217283659      -35.010576255426
O       -18.481164274980        7.608062360249      -35.010576255426
O       -15.653535855909        5.217845076589      -38.716926912731
O       -20.871380932498        0.000000000000      -38.716926912731
O       -20.871380932498        0.000000000000      -31.304226572460
O       -15.653535855909        5.217845076589      -31.304226572460
O       -12.798237620717        2.838860144118      -20.117815654649
O       -13.265401118660        8.053675948449      -20.147981175674
O       -18.022996551024        2.377605542891      -20.132818519402
O       -18.485532237625        7.595270290747      -20.145769427201
O       -15.653535855909        5.217845076589      -23.891526232190
O       -20.871380932498        0.000000000000      -23.891526232190
O       -18.043753139568        8.045473495660      -27.597875915156
O       -18.481164274980        2.827628419071      -27.597875915156
O       -12.825907436838        7.608062360249      -27.597875915156
O       -13.263318572250        2.390217283659      -27.597875915156
O       -20.844978426641       -0.015869554651      -16.384076341143
O       -15.644620854168        5.239478889283      -16.385878867432
O       -12.730558619232        2.928071523386       -4.930197803579
O       -13.342896765551        8.129747749719       -5.081100432770
O       -17.969792687215        2.334684173716       -5.042733904301
O       -18.525195166777        7.558029276663       -5.116961936867
O       -15.602164081937        5.159266414709       -8.863133810072
O       -20.868340389694        0.032394053242       -8.879913868311
O       -18.011408551500        8.049543414983      -12.593790316455
O       -18.476897747247        2.838771858176      -12.636434191090
O       -12.788760343969        7.580381899724      -12.600101107142
O       -13.258911162694        2.368142667395      -12.670943313301
O       -20.863350668604       -0.034775895257       -1.345252650675
O       -15.724686811647        5.269543696390       -1.295026473566
O       -12.825907436838       13.263318572250      -35.010576255426
O       -13.263318572250       18.481164274980      -35.010576255426
O       -18.043753139568       12.825907436838      -35.010576255426
O       -18.481164274980       18.043753139568      -35.010576255426
O       -15.653535855909       15.653535855909      -38.716926912731
O       -20.871380932498       10.435690779320      -38.716926912731
O       -20.871380932498       10.435690779320      -31.304226572460
O       -15.653535855909       15.653535855909      -31.304226572460
O       -12.806743125960       13.270856688976      -20.134554790670
O       -13.265132503985       18.484800904430      -20.143762289820
O       -18.027139728894       12.813045239496      -20.134986422641
O       -18.482317001361       18.030661148320      -20.139103002948
O       -15.653535855909       15.653535855909      -23.891526232190
O       -20.871380932498       10.435690779320      -23.891526232190
O       -18.043753139568       18.481164274980      -27.597875915156
O       -18.481164274980       13.263318572250      -27.597875915156
O       -12.825907436838       18.043753139568      -27.597875915156
O       -13.263318572250       12.825907436838      -27.597875915156
O       -20.851968043471       10.415374368203      -16.386646646197
O       -15.638050125957       15.650475902720      -16.385948045467
O       -12.758283535799       13.309579153694       -5.041552031659
O       -13.300391780429       18.517285122038       -5.106587180153
O       -17.999962059941       12.786539420302       -5.090536901476
O       -18.513426838521       18.007792584717       -5.127485767377
O       -15.635563718322       15.624058995609       -8.881775829250
O       -20.870986463395       10.449934244666       -8.887263303876
O       -18.023598899083       18.480725975976      -12.628265336817
O       -18.482637585775       13.268146748849      -12.645796610067
O       -12.803090216833       18.017014395761      -12.623456001812
O       -13.263491387285       12.795898356319      -12.629052602353
O       -20.867917744225       10.425337530705       -1.363523446872
O       -15.683786627021       15.684149789053       -1.354834295823
O       -12.825907436838       23.699009351569      -35.010576255426
O       -13.263318572250       28.916854428159      -35.010576255426
O       -18.043753139568       23.261598216158      -35.010576255426
O       -18.481164274980       28.479443292747      -35.010576255426
O       -15.653535855909       26.089226635229      -38.716926912731
O       -20.871380932498       20.871380932498      -38.716926912731
O       -20.871380932498       20.871380932498      -31.304226572460
O       -15.653535855909       26.089226635229      -31.304226572460
O       -12.811200626830       23.697722004781      -20.129341105172
O       -13.266440513441       28.920295701481      -20.143063689091
O       -18.031535241762       23.249456081465      -20.144338123894
O       -18.484728898165       28.469574051460      -20.143970798266
O       -15.653535855909       26.089226635229      -23.891526232190
O       -20.871380932498       20.871380932498      -23.891526232190
O       -18.043753139568       28.916854428159      -27.597875915156
O       -18.481164274980       23.699009351569      -27.597875915156
O       -12.825907436838       28.479443292747      -27.597875915156
O       -13.263318572250       23.261598216158      -27.597875915156
O       -20.861502299090       20.861081532046      -16.395468307287
O       -15.653883990546       26.086670725894      -16.398236403063
O       -12.790946829857       23.732642538709       -5.098679448607
O       -13.302096763555       28.950577779665       -5.116910296924
O       -18.010141867379       23.227097823131       -5.118195449451
O       -18.517849901612       28.441969354049       -5.127748838781
O       -15.643433690009       26.078651732546       -8.904684476871
O       -20.875904178219       20.874737676727       -8.903180098174
O       -18.032474453914       28.920477282497      -12.644424741410
O       -18.485020680074       23.700860851790      -12.649366586457
O       -12.814006992739       28.465701366690      -12.653033022361
O       -13.265791204773       23.239865473117      -12.655433792510
O       -20.868209526134       20.867105012644       -1.377950477551
O       -15.666977860219       26.095121130691       -1.375307097107
O        -2.390217283659      -28.479443292747      -35.010576255426
O        -2.827628419071      -23.261598216158      -35.010576255426
O        -7.608062360249      -28.916854428159      -35.010576255426
O        -8.045473495660      -23.699009351569      -35.010576255426
O        -5.217845076589      -26.089226635229      -38.716926912731
O       -10.435690779320      -31.307071711818      -38.716926912731
O       -10.435690779320      -31.307071711818      -31.304226572460
O        -5.217845076589      -26.089226635229      -31.304226572460
O        -2.383359156530      -28.469499540630      -20.139940934088
O        -2.833935541738      -23.246309720758      -20.134421306291
O        -7.598695284392      -28.922458393995      -20.140094879576
O        -8.050862694985      -23.701427509788      -20.143886030814
O        -5.217845076589      -26.089226635229      -23.891526232190
O       -10.435690779320      -31.307071711818      -23.891526232190
O        -7.608062360249      -23.261598216158      -27.597875915156
O        -8.045473495660      -28.479443292747      -27.597875915156
O        -2.390217283659      -23.699009351569      -27.597875915156
O        -2.827628419071      -28.916854428159      -27.597875915156
O       -10.430456863071       31.305771842201      -16.397560212120
O        -5.218492506832      -26.079084396277      -16.392020123214
O        -2.352932439675      -28.447960901433       -5.108949951098
O        -2.858693800189      -23.239737114123       -5.091096171794
O        -7.571235225653      -28.963535150505       -5.128086934252
O        -8.083402639181      -23.745474055121       -5.118365958695
O        -5.207782357600      -26.090276674414       -8.897269760624
O       -10.441330435218       31.303334899738       -8.906057319866
O        -7.590892935980      -23.241555428848      -12.628861632000
O        -8.050388079778      -28.468641726865      -12.644301974755
O        -2.373124874788      -23.699721274380      -12.639510177843
O        -2.836096355828      -28.924237887951      -12.649303254452
O       -10.432486813601       31.300817811173       -1.378735794410
O        -5.240374897676      -26.118811817996       -1.372007012491
O        -2.390217283659      -18.043753139568      -35.010576255426
O        -2.827628419071      -12.825907436838      -35.010576255426
O        -7.608062360249      -18.481164274980      -35.010576255426
O        -8.045473495660      -13.263318572250      -35.010576255426
O        -5.217845076589      -15.653535855909      -38.716926912731
O       -10.435690779320      -20.871380932498      -38.716926912731
O       -10.435690779320      -20.871380932498      -31.304226572460
O        -5.217845076589      -15.653535855909      -31.304226572460
O        -2.377232988738      -18.025084732707      -20.137547958648
O        -2.827074283902      -12.796475658722      -20.131356037261
O        -7.588681404435      -18.481335837733      -20.135128676067
O        -8.043704019967      -13.266218233231      -20.137041302610
O        -5.217845076589      -15.653535855909      -23.891526232190
O       -10.435690779320      -20.871380932498      -23.891526232190
O        -7.608062360249      -12.825907436838      -27.597875915156
O        -8.045473495660      -18.043753139568      -27.597875915156
O        -2.390217283659      -13.263318572250      -27.597875915156
O        -2.827628419071      -18.481164274980      -27.597875915156
O       -10.402502152598      -20.845819960728      -16.384681405373
O        -5.200698193413      -15.627867187812      -16.370426832615
O        -2.364581801059      -18.024139885282       -5.045490308015
O        -2.806875587375      -12.790743333891       -4.715627022859
O        -7.577764628529      -18.533634301028       -5.174947746064
O        -8.093599352437      -13.332373206466       -5.074008222578
O        -5.130143950461      -15.566868489289       -8.841219962095
O       -10.476516453115      -20.890011144732       -8.893899523633
O        -7.573829955756      -12.794301069520      -12.599347943455
O        -8.032175503880      -18.013730283938      -12.568079471210
O        -2.323456205517      -13.260074533479      -12.574994351788
O        -2.829027845177      -18.474787650614      -12.614695724049
O       -10.416075020468      -20.884417197159       -1.373990765747
O        -5.380167234283      -15.875090993282       -1.302453856214
O        -2.390217283659       -7.608062360249      -35.010576255426
O        -2.827628419071       -2.390217283659      -35.010576255426
O        -7.608062360249       -8.045473495660      -35.010576255426
O        -8.045473495660       -2.827628419071      -35.010576255426
O        -5.217845076589       -5.217845076589      -38.716926912731
O       -10.435690779320      -10.435690779320      -38.716926912731
O       -10.435690779320      -10.435690779320      -31.304226572460
O        -5.217845076589       -5.217845076589      -31.304226572460
O        -2.364306924969       -7.598405380908      -20.129165724236
O        -2.824151455687       -2.372187541061      -20.112535714131
O        -7.578201049108       -8.050677357120      -20.140127032748
O        -8.038094418858       -2.842849291196      -20.128761373744
O        -5.217845076589       -5.217845076589      -23.891526232190
O       -10.435690779320      -10.435690779320      -23.891526232190
O        -7.608062360249       -2.390217283659      -27.597875915156
O        -8.045473495660       -7.608062360249      -27.597875915156
O        -2.390217283659       -2.827628419071      -27.597875915156
O        -2.827628419071       -8.045473495660      -27.597875915156
O       -10.389896673244      -10.416747496368      -16.386381626115
O        -5.199772756373       -5.224409543386      -16.348663032772
O        -2.373548772539       -7.724228502118       -4.652601934762
O        -2.796196119072       -2.398293255878       -4.793448415939
O        -7.533178349280       -8.153962517405       -5.108119814667
O        -8.141332618535       -2.918853469191       -5.099628454340
O        -5.079731425167       -5.221192428697       -8.800356203962
O       -10.481493025234      -10.420747287850       -8.870544628964
O        -7.561913858121       -2.379186550013      -12.541933096639
O        -8.032979469482       -7.580272951114      -12.550609581288
O        -2.334161345618       -2.842276997925      -12.583776064999
O        -2.828019131326       -8.087855757061      -12.554964874537
O       -10.384297716539      -10.495183607694       -1.279153524502
O        -5.565574600517       -5.247336338142       -1.316437562859
O        -2.390217283659        2.827628419071      -35.010576255426
O        -2.827628419071        8.045473495660      -35.010576255426
O        -7.608062360249        2.390217283659      -35.010576255426
O        -8.045473495660        7.608062360249      -35.010576255426
O        -5.217845076589        5.217845076589      -38.716926912731
O       -10.435690779320        0.000000000000      -38.716926912731
O       -10.435690779320        0.000000000000      -31.304226572460
O        -5.217845076589        5.217845076589      -31.304226572460
O        -2.358813786167        2.828500634089      -20.138148151185
O        -2.819777857769        8.054045371895      -20.117889704378
O        -7.574355288419        2.373188115073      -20.140697995129
O        -8.036713776995        7.588145427367      -20.116859828547
O        -5.217845076589        5.217845076589      -23.891526232190
O       -10.435690779320        0.000000000000      -23.891526232190
O        -7.608062360249        8.045473495660      -27.597875915156
O        -8.045473495660        2.827628419071      -27.597875915156
O        -2.390217283659        7.608062360249      -27.597875915156
O        -2.827628419071        2.390217283659      -27.597875915156
O       -10.371244546060       -0.001901591536      -16.373781480189
O        -5.182054206067        5.179282904079      -16.357249878276
O        -2.390664974785        2.785753332232       -4.964254832710
O        -2.769355314211        8.106746444132       -4.581683730198
O        -7.552127267504        2.290973240192       -5.096768770741
O        -8.127603841448        7.517069608601       -5.026650498114
O        -5.131862708698        5.329138585818       -8.810294457013
O       -10.502742387088        0.018788626017       -8.861776556493
O        -7.564001413663        8.050709290333      -12.621755781069
O        -8.025495827060        2.842369666857      -12.537902258122
O        -2.323634029684        7.576324503230      -12.597684747577
O        -2.826789389549        2.345503271558      -12.507243721799
O       -10.468103616804       -0.064478166473       -1.305484049056
O        -5.491146420512        5.077037764717       -1.303208968578
O        -2.390217283659       13.263318572250      -35.010576255426
O        -2.827628419071       18.481164274980      -35.010576255426
O        -7.608062360249       12.825907436838      -35.010576255426
O        -8.045473495660       18.043753139568      -35.010576255426
O        -5.217845076589       15.653535855909      -38.716926912731
O       -10.435690779320       10.435690779320      -38.716926912731
O       -10.435690779320       10.435690779320      -31.304226572460
O        -5.217845076589       15.653535855909      -31.304226572460
O        -2.364965625758       13.255936990881      -20.137548932986
O        -2.831296981734       18.476377423715      -20.132920824948
O        -7.585574490638       12.806291051845      -20.136976996266
O        -8.044804150467       18.021205786522      -20.128329741774
O        -5.217845076589       15.653535855909      -23.891526232190
O       -10.435690779320       10.435690779320      -23.891526232190
O        -7.608062360249       18.481164274980      -27.597875915156
O        -8.045473495660       13.263318572250      -27.597875915156
O        -2.390217283659       18.043753139568      -27.597875915156
O        -2.827628419071       12.825907436838      -27.597875915156
O       -10.425291196239       10.419256445095      -16.387817801115
O        -5.191224047371       15.619456856068      -16.367445356699
O        -2.317101496101       13.255699683278       -4.786461434309
O        -2.855708357831       18.497174085312       -5.066206693933
O        -7.537101751507       12.737347244662       -4.937067864585
O        -8.085366844860       17.987875651836       -5.140616927805
O        -5.173462293306       15.558636607853       -8.827602606738
O       -10.390349373501       10.440096310451       -8.864766801455
O        -7.582950331887       18.461424540124      -12.582219072021
O        -8.045840414541       13.259169759106      -12.624077629796
O        -2.377162860897       18.003614342927      -12.605517455055
O        -2.839526984746       12.747932165608      -12.554441654744
O       -10.504723498586       10.374680810251       -1.263364368553
O        -5.342273780825       15.800832497606       -1.287336993853
O        -2.390217283659       23.699009351569      -35.010576255426
O        -2.827628419071       28.916854428159      -35.010576255426
O        -7.608062360249       23.261598216158      -35.010576255426
O        -8.045473495660       28.479443292747      -35.010576255426
O        -5.217845076589       26.089226635229      -38.716926912731
O       -10.435690779320       20.871380932498      -38.716926912731
O       -10.435690779320       20.871380932498      -31.304226572460
O        -5.217845076589       26.089226635229      -31.304226572460
O        -2.380339276393       23.699197820141      -20.140728199624
O        -2.833661291790       28.920431574172      -20.140863632680
O        -7.596595206022       23.243569099700      -20.137248836717
O        -8.050300419977       28.467710654552      -20.140602509953
O        -5.217845076589       26.089226635229      -23.891526232190
O       -10.435690779320       20.871380932498      -23.891526232190
O        -7.608062360249       28.916854428159      -27.597875915156
O        -8.045473495660       23.699009351569      -27.597875915156
O        -2.390217283659       28.479443292747      -27.597875915156
O        -2.827628419071       23.261598216158      -27.597875915156
O       -10.416567793777       20.839787088009      -16.382479400285
O        -5.211877948721       26.079570908171      -16.393269225215
O        -2.363290071280       23.731519240976       -5.102938282341
O        -2.865415428486       28.952350386065       -5.111102264921
O        -7.573853749131       23.220820129112       -5.100794737566
O        -8.086930320021       28.436875693482       -5.122506897466
O        -5.220218778766       26.081041088259       -8.896421111760
O       -10.445310816315       20.885951869814       -8.887175613408
O        -7.598470499618       28.917708485075      -12.645912556352
O        -8.049919099843       23.693153050735      -12.647316578180
O        -2.380247233602       28.463284460754      -12.641391625553
O        -2.840543838435       23.234205154551      -12.631931772722
O       -10.433814233441       20.847976391828       -1.370993700415
O        -5.234432189324       26.101974248688       -1.367390596515
O         8.045473495660      -28.479443292747      -35.010576255426
O         7.608062360249      -23.261598216158      -35.010576255426
O         2.827628419071      -28.916854428159      -35.010576255426
O         2.390217283659      -23.699009351569      -35.010576255426
O         5.217845076589      -26.089226635229      -38.716926912731
O         0.000000000000      -31.307071711818      -38.716926912731
O         0.000000000000      -31.307071711818      -31.304226572460
O         5.217845076589      -26.089226635229      -31.304226572460
O         8.050300419977      -28.467710654552      -20.140602509953
O         7.596595206022      -23.243569099700      -20.137248836717
O         2.833661291790      -28.920431574172      -20.140863632680
O         2.380339276393      -23.699197820141      -20.140728199624
O         5.217845076589      -26.089226635229      -23.891526232190
O         0.000000000000      -31.307071711818      -23.891526232190
O         2.827628419071      -23.261598216158      -27.597875915156
O         2.390217283659      -28.479443292747      -27.597875915156
O         8.045473495660      -23.699009351569      -27.597875915156
O         7.608062360249      -28.916854428159      -27.597875915156
O         0.000000000000      -31.307071711818      -16.396241932083
O         5.211877948721      -26.079570908171      -16.393269225215
O         8.086930320021      -28.436875693482       -5.122506897466
O         7.573853749131      -23.220820129112       -5.100794737566
O         2.865415428486      -28.952350386065       -5.111102264921
O         2.363290071280      -23.731519240976       -5.102938282341
O         5.220218778766      -26.081041088259       -8.896421111760
O         0.000000000000      -31.307071711818       -8.899669556434
O         2.840543838435      -23.234205154551      -12.631931772722
O         2.380247233602      -28.463284460753      -12.641391625553
O         8.049919099843      -23.693153050735      -12.647316578180
O         7.598470499618      -28.917708485075      -12.645912556352
O         0.000000000000      -31.307071711818       -1.368826771515
O         5.234432189324      -26.101974248688       -1.367390596515
O         8.045473495660      -18.043753139568      -35.010576255426
O         7.608062360249      -12.825907436838      -35.010576255426
O         2.827628419071      -18.481164274980      -35.010576255426
O         2.390217283659      -13.263318572250      -35.010576255426
O         5.217845076589      -15.653535855909      -38.716926912731
O         0.000000000000      -20.871380932498      -38.716926912731
O         0.000000000000      -20.871380932498      -31.304226572460
O         5.217845076589      -15.653535855909      -31.304226572460
O         8.044804150467      -18.021205786522      -20.128329741774
O         7.585574490638      -12.806291051845      -20.136976996266
O         2.831296981734      -18.476377423715      -20.132920824948
O         2.364965625758      -13.255936990881      -20.137548932986
O         5.217845076589      -15.653535855909      -23.891526232190
O         0.000000000000      -20.871380932498      -23.891526232190
O         2.827628419071      -12.825907436838      -27.597875915156
O         2.390217283659      -18.043753139568      -27.597875915156
O         8.045473495660      -13.263318572250      -27.597875915156
O         7.608062360249      -18.481164274980      -27.597875915156
O         0.005322828332      -20.849626274507      -16.382359556645
O         5.191224047371      -15.619456856068      -16.367445356699
O         8.085366844860      -17.987875651836       -5.140616927805
O         7.537101751507      -12.737347244662       -4.937067864585
O         2.855708357831      -18.497174085312       -5.066206693933
O         2.317101496101      -13.255699683278       -4.786461434309
O         5.173462293306      -15.558636607853       -8.827602606738
O         0.000432663731      -20.856467495818       -8.876469581592
O         2.839526984746      -12.747932165608      -12.554441654744
O         2.377162860897      -18.003614342927      -12.605517455055
O         8.045840414541      -13.259169759106      -12.624077629796
O         7.582950331887      -18.461424540124      -12.582219072021
O         0.018818680806      -20.931172430336       -1.331470632106
O         5.342273780825      -15.800832497606       -1.287336993853
O         8.045473495660       -7.608062360249      -35.010576255426
O         7.608062360249       -2.390217283659      -35.010576255426
O         2.827628419071       -8.045473495660      -35.010576255426
O         2.390217283659       -2.827628419071      -35.010576255426
O         5.217845076589       -5.217845076589      -38.716926912731
O         0.000000000000      -10.435690779320      -38.716926912731
O         0.000000000000      -10.435690779320      -31.304226572460
O         5.217845076589       -5.217845076589      -31.304226572460
O         8.036713776995       -7.588145427367      -20.116859828547
O         7.574355288419       -2.373188115073      -20.140697995129
O         2.819777857769       -8.054045371895      -20.117889704378
O         2.358813786167       -2.828500634089      -20.138148151185
O         5.217845076589       -5.217845076589      -23.891526232190
O         0.000000000000      -10.435690779320      -23.891526232190
O         2.827628419071       -2.390217283659      -27.597875915156
O         2.390217283659       -7.608062360249      -27.597875915156
O         8.045473495660       -2.827628419071      -27.597875915156
O         7.608062360249       -8.045473495660      -27.597875915156
O        -0.002401878542      -10.432099858194      -16.358556466250
O         5.182054206067       -5.179282904079      -16.357249878276
O         8.127603841448       -7.517069608601       -5.026650498114
O         7.552127267504       -2.290973240192       -5.096768770741
O         2.769355314211       -8.106746444132       -4.581683730198
O         2.390664974785       -2.785753332232       -4.964254832710
O         5.131862708698       -5.329138585818       -8.810294457013
O         0.009473519900      -10.383531319424       -8.669687663116
O         2.826789389549       -2.345503271558      -12.507243721799
O         2.323634029684       -7.576324503230      -12.597684747577
O         8.025495827060       -2.842369666857      -12.537902258122
O         7.564001413663       -8.050709290333      -12.621755781069
O         0.054303994308      -11.151907041861       -0.103680337783
O         5.491146420512       -5.077037764717       -1.303208968578
O         8.045473495660        2.827628419071      -35.010576255426
O         7.608062360249        8.045473495660      -35.010576255426
O         2.827628419071        2.390217283659      -35.010576255426
O         2.390217283659        7.608062360249      -35.010576255426
O         5.217845076589        5.217845076589      -38.716926912731
O         0.000000000000        0.000000000000      -38.716926912731
O         0.000000000000        0.000000000000      -31.304226572460
O         5.217845076589        5.217845076589      -31.304226572460
O         8.038094418858        2.842849291196      -20.128761373744
O         7.578201049108        8.050677357120      -20.140127032748
O         2.824151455687        2.372187541061      -20.112535714131
O         2.364306924969        7.598405380908      -20.129165724236
O         5.217845076589        5.217845076589      -23.891526232190
O         0.000000000000        0.000000000000      -23.891526232190
O         2.827628419071        8.045473495660      -27.597875915156
O         2.390217283659        2.827628419071      -27.597875915156
O         8.045473495660        7.608062360249      -27.597875915156
O         7.608062360249        2.390217283659      -27.597875915156
O         0.000000000000        0.000000000000      -16.341813432875
O         5.199772756373        5.224409543386      -16.348663032772
O         8.141332618535        2.918853469191       -5.099628454340
O         7.533178349280        8.153962517405       -5.108119814667
O         2.796196119072        2.398293255878       -4.793448415939
O         2.373548772539        7.724228502118       -4.652601934762
O         5.079731425167        5.221192428697       -8.800356203962
O         0.000000000000        0.000000000000       -8.699138993995
O         2.828019131326        8.087855757061      -12.554964874537
O         2.334161345618        2.842276997925      -12.583776064999
O         8.032979469482        7.580272951114      -12.550609581288
O         7.561913858121        2.379186550013      -12.541933096639
O         0.000000000000        0.000000000000       -0.739041624365
O         5.565574600517        5.247336338142       -1.316437562859
O         8.045473495660       13.263318572250      -35.010576255426
O         7.608062360249       18.481164274980      -35.010576255426
O         2.827628419071       12.825907436838      -35.010576255426
O         2.390217283659       18.043753139568      -35.010576255426
O         5.217845076589       15.653535855909      -38.716926912731
O         0.000000000000       10.435690779320      -38.716926912731
O         0.000000000000       10.435690779320      -31.304226572460
O         5.217845076589       15.653535855909      -31.304226572460
O         8.043704019967       13.266218233231      -20.137041302610
O         7.588681404435       18.481335837733      -20.135128676067
O         2.827074283902       12.796475658722      -20.131356037261
O         2.377232988738       18.025084732707      -20.137547958648
O         5.217845076589       15.653535855909      -23.891526232190
O         0.000000000000       10.435690779320      -23.891526232190
O         2.827628419071       18.481164274980      -27.597875915156
O         2.390217283659       13.263318572250      -27.597875915156
O         8.045473495660       18.043753139568      -27.597875915156
O         7.608062360249       12.825907436838      -27.597875915156
O         0.002401878542       10.432099858194      -16.358556466250
O         5.200698193413       15.627867187812      -16.370426832615
O         8.093599352437       13.332373206466       -5.074008222578
O         7.577764628529       18.533634301028       -5.174947746064
O         2.806875587375       12.790743333891       -4.715627022859
O         2.364581801059       18.024139885282       -5.045490308015
O         5.130143950461       15.566868489289       -8.841219962095
O        -0.009473519900       10.383531319424       -8.669687663116
O         2.829027845177       18.474787650614      -12.614695724049
O         2.323456205517       13.260074533479      -12.574994351788
O         8.032175503880       18.013730283938      -12.568079471210
O         7.573829955756       12.794301069520      -12.599347943455
O        -0.054303994308       11.151907041861       -0.103680337783
O         5.380167234283       15.875090993282       -1.302453856214
O         8.045473495660       23.699009351569      -35.010576255426
O         7.608062360249       28.916854428159      -35.010576255426
O         2.827628419071       23.261598216158      -35.010576255426
O         2.390217283659       28.479443292747      -35.010576255426
O         5.217845076589       26.089226635229      -38.716926912731
O         0.000000000000       20.871380932498      -38.716926912731
O         0.000000000000       20.871380932498      -31.304226572460
O         5.217845076589       26.089226635229      -31.304226572460
O         8.050862694985       23.701427509788      -20.143886030814
O         7.598695284392       28.922458393995      -20.140094879576
O         2.833935541738       23.246309720758      -20.134421306291
O         2.383359156530       28.469499540630      -20.139940934088
O         5.217845076589       26.089226635229      -23.891526232190
O         0.000000000000       20.871380932498      -23.891526232190
O         2.827628419071       28.916854428159      -27.597875915156
O         2.390217283659       23.699009351569      -27.597875915156
O         8.045473495660       28.479443292747      -27.597875915156
O         7.608062360249       23.261598216158      -27.597875915156
O        -0.005322828332       20.849626274507      -16.382359556645
O         5.218492506832       26.079084396277      -16.392020123214
O         8.083402639181       23.745474055121       -5.118365958695
O         7.571235225653       28.963535150505       -5.128086934252
O         2.858693800189       23.239737114123       -5.091096171794
O         2.352932439675       28.447960901433       -5.108949951098
O         5.207782357600       26.090276674414       -8.897269760624
O        -0.000432663731       20.856467495818       -8.876469581592
O         2.836096355828       28.924237887951      -12.649303254452
O         2.373124874788       23.699721274380      -12.639510177843
O         8.050388079778       28.468641726865      -12.644301974755
O         7.590892935980       23.241555428848      -12.628861632000
O        -0.018818680806       20.931172430336       -1.331470632106
O         5.240374897676       26.118811817996       -1.372007012491
O        18.481164274980      -28.479443292747      -35.010576255426
O        18.043753139568      -23.261598216158      -35.010576255426
O        13.263318572250      -28.916854428159      -35.010576255426
O        12.825907436838      -23.699009351569      -35.010576255426
O        15.653535855909      -26.089226635229      -38.716926912731
O        10.435690779320      -31.307071711818      -38.716926912731
O        10.435690779320      -31.307071711818      -31.304226572460
O        15.653535855909      -26.089226635229      -31.304226572460
O        18.484728898165      -28.469574051460      -20.143970798266
O        18.031535241762      -23.249456081465      -20.144338123894
O        13.266440513441      -28.920295701481      -20.143063689091
O        12.811200626830      -23.697722004781      -20.129341105172
O        15.653535855909      -26.089226635229      -23.891526232190
O        10.435690779320      -31.307071711818      -23.891526232190
O        13.263318572250      -23.261598216158      -27.597875915156
O        12.825907436838      -28.479443292747      -27.597875915156
O        18.481164274980      -23.699009351569      -27.597875915156
O        18.043753139568      -28.916854428159      -27.597875915156
O        10.430456863071      -31.305771842201      -16.397560212120
O        15.653883990546      -26.086670725894      -16.398236403063
O        18.517849901612      -28.441969354049       -5.127748838781
O        18.010141867379      -23.227097823131       -5.118195449451
O        13.302096763555      -28.950577779665       -5.116910296924
O        12.790946829857      -23.732642538709       -5.098679448607
O        15.643433690009      -26.078651732546       -8.904684476871
O        10.441330435218      -31.303334899738       -8.906057319866
O        13.265791204773      -23.239865473117      -12.655433792510
O        12.814006992739      -28.465701366690      -12.653033022361
O        18.485020680074      -23.700860851790      -12.649366586457
O        18.032474453914      -28.920477282497      -12.644424741410
O        10.432486813601      -31.300817811173       -1.378735794410
O        15.666977860219      -26.095121130691       -1.375307097107
O        18.481164274980      -18.043753139568      -35.010576255426
O        18.043753139568      -12.825907436838      -35.010576255426
O        13.263318572250      -18.481164274980      -35.010576255426
O        12.825907436838      -13.263318572250      -35.010576255426
O        15.653535855909      -15.653535855909      -38.716926912731
O        10.435690779320      -20.871380932498      -38.716926912731
O        10.435690779320      -20.871380932498      -31.304226572460
O        15.653535855909      -15.653535855909      -31.304226572460
O        18.482317001361      -18.030661148320      -20.139103002948
O        18.027139728894      -12.813045239496      -20.134986422641
O        13.265132503985      -18.484800904430      -20.143762289820
O        12.806743125960      -13.270856688976      -20.134554790670
O        15.653535855909      -15.653535855909      -23.891526232190
O        10.435690779320      -20.871380932498      -23.891526232190
O        13.263318572250      -12.825907436838      -27.597875915156
O        12.825907436838      -18.043753139568      -27.597875915156
O        18.481164274980      -13.263318572250      -27.597875915156
O        18.043753139568      -18.481164274980      -27.597875915156
O        10.416567793777      -20.839787088009      -16.382479400285
O        15.638050125957      -15.650475902720      -16.385948045467
O        18.513426838521      -18.007792584717       -5.127485767377
O        17.999962059941      -12.786539420302       -5.090536901476
O        13.300391780429      -18.517285122038       -5.106587180153
O        12.758283535799      -13.309579153694       -5.041552031659
O        15.635563718322      -15.624058995609       -8.881775829250
O        10.445310816315      -20.885951869814       -8.887175613408
O        13.263491387285      -12.795898356319      -12.629052602353
O        12.803090216833      -18.017014395761      -12.623456001812
O        18.482637585775      -13.268146748849      -12.645796610067
O        18.023598899083      -18.480725975976      -12.628265336817
O        10.433814233441      -20.847976391828       -1.370993700415
O        15.683786627021      -15.684149789053       -1.354834295823
O        18.481164274980       -7.608062360249      -35.010576255426
O        18.043753139568       -2.390217283659      -35.010576255426
O        13.263318572250       -8.045473495660      -35.010576255426
O        12.825907436838       -2.827628419071      -35.010576255426
O        15.653535855909       -5.217845076589      -38.716926912731
O        10.435690779320      -10.435690779320      -38.716926912731
O        10.435690779320      -10.435690779320      -31.304226572460
O        15.653535855909       -5.217845076589      -31.304226572460
O        18.485532237625       -7.595270290747      -20.145769427201
O        18.022996551024       -2.377605542891      -20.132818519402
O        13.265401118660       -8.053675948449      -20.147981175674
O        12.798237620717       -2.838860144118      -20.117815654649
O        15.653535855909       -5.217845076589      -23.891526232190
O        10.435690779320      -10.435690779320      -23.891526232190
O        13.263318572250       -2.390217283659      -27.597875915156
O        12.825907436838       -7.608062360249      -27.597875915156
O        18.481164274980       -2.827628419071      -27.597875915156
O        18.043753139568       -8.045473495660      -27.597875915156
O        10.425291196239      -10.419256445095      -16.387817801115
O        15.644620854168       -5.239478889283      -16.385878867432
O        18.525195166777       -7.558029276663       -5.116961936867
O        17.969792687215       -2.334684173716       -5.042733904301
O        13.342896765551       -8.129747749719       -5.081100432770
O        12.730558619232       -2.928071523386       -4.930197803579
O        15.602164081937       -5.159266414709       -8.863133810072
O        10.390349373501      -10.440096310451       -8.864766801455
O        13.258911162694       -2.368142667395      -12.670943313301
O        12.788760343969       -7.580381899724      -12.600101107142
O        18.476897747247       -2.838771858176      -12.636434191090
O        18.011408551500       -8.049543414983      -12.593790316455
O        10.504723498586      -10.374680810251       -1.263364368553
O        15.724686811647       -5.269543696390       -1.295026473566
O        18.481164274980        2.827628419071      -35.010576255426
O        18.043753139568        8.045473495660      -35.010576255426
O        13.263318572250        2.390217283659      -35.010576255426
O        12.825907436838        7.608062360249      -35.010576255426
O        15.653535855909        5.217845076589      -38.716926912731
O        10.435690779320        0.000000000000      -38.716926912731
O        10.435690779320        0.000000000000      -31.304226572460
O        15.653535855909        5.217845076589      -31.304226572460
O        18.484773354207        2.837359909242      -20.149293609680
O        18.024913796095        8.054493689162      -20.137932822369
O        13.261066341511        2.374523674752      -20.126093634837
O        12.804010018600        7.589577412827      -20.128813013687
O        15.653535855909        5.217845076589      -23.891526232190
O        10.435690779320        0.000000000000      -23.891526232190
O        13.263318572250        8.045473495660      -27.597875915156
O        12.825907436838        2.827628419071      -27.597875915156
O        18.481164274980        7.608062360249      -27.597875915156
O        18.043753139568        2.390217283659      -27.597875915156
O        10.371244546060        0.001901591536      -16.373781480189
O        15.657313993323        5.202376878598      -16.385698614803
O        18.542620056750        2.888838127258       -5.135136273549
O        17.979956214976        8.087890820981       -5.083155312739
O        13.365481060942        2.285909008271       -5.046731615308
O        12.740144844590        7.520905977169       -4.912727913658
O        15.575882421376        5.252158879468       -8.864061380356
O        10.502742387088       -0.018788626017       -8.861776556493
O        13.262199657507        8.058189175907      -12.665883573291
O        12.785471849156        2.847932307359      -12.636144812545
O        18.477424332193        7.590093979510      -12.620865235649
O        18.010494385006        2.379266069975      -12.587889722291
O        10.468103616804        0.064478166473       -1.305484049056
O        15.751950888118        5.150295060239       -1.301079064542
O        18.481164274980       13.263318572250      -35.010576255426
O        18.043753139568       18.481164274980      -35.010576255426
O        13.263318572250       12.825907436838      -35.010576255426
O        12.825907436838       18.043753139568      -35.010576255426
O        15.653535855909       15.653535855909      -38.716926912731
O        10.435690779320       10.435690779320      -38.716926912731
O        10.435690779320       10.435690779320      -31.304226572460
O        15.653535855909       15.653535855909      -31.304226572460
O        18.484345073466       13.269852358116      -20.145840553914
O        18.027829736754       18.486495243151      -20.142078632832
O        13.264554575441       12.809567649970      -20.128006261380
O        12.808835690633       18.028005056356      -20.134770119486
O        15.653535855909       15.653535855909      -23.891526232190
O        10.435690779320       10.435690779320      -23.891526232190
O        13.263318572250       18.481164274980      -27.597875915156
O        12.825907436838       13.263318572250      -27.597875915156
O        18.481164274980       18.043753139568      -27.597875915156
O        18.043753139568       12.825907436838      -27.597875915156
O        10.389896673244       10.416747496368      -16.386381626115
O        15.656193200156       15.644258944419      -16.389215976912
O        18.515671555562       13.299337358254       -5.119991155370
O        18.011188149715       18.513209567443       -5.125125919446
O        13.305008947365       12.768135871267       -5.046669257642
O        12.795813827226       18.008887079944       -5.078788327428
O        15.616710599737       15.644335333674       -8.885588415935
O        10.481493025234       10.420747287850       -8.870544628964
O        13.262586612913       18.484216714472      -12.654111615119
O        12.793364361935       13.272980560721      -12.647676109099
O        18.478975910668       18.028304978103      -12.627809346383
O        18.017355016701       12.807297261129      -12.619884076744
O        10.384297716539       10.495183607694       -1.279153524502
O        15.697417099903       15.667697922869       -1.353636833764
O        18.481164274980       23.699009351569      -35.010576255426
O        18.043753139568       28.916854428159      -35.010576255426
O        13.263318572250       23.261598216158      -35.010576255426
O        12.825907436838       28.479443292747      -35.010576255426
O        15.653535855909       26.089226635229      -38.716926912731
O        10.435690779320       20.871380932498      -38.716926912731
O        10.435690779320       20.871380932498      -31.304226572460
O        15.653535855909       26.089226635229      -31.304226572460
O        18.483812853247       23.703783053864      -20.145917526658
O        18.033324753981       28.924109528957      -20.145884399148
O        13.262746278979       23.248181883646      -20.127006590044
O        12.815809027786       28.471654093305      -20.142597955271
O        15.653535855909       26.089226635229      -23.891526232190
O        10.435690779320       20.871380932498      -23.891526232190
O        13.263318572250       28.916854428159      -27.597875915156
O        12.825907436838       23.699009351569      -27.597875915156
O        18.481164274980       28.479443292747      -27.597875915156
O        18.043753139568       23.261598216158      -27.597875915156
O        10.402502152598       20.845819960728      -16.384681405373
O        15.658320828749       26.091810094786      -16.399405609304
O        18.517484235014       23.735905987865       -5.123110987357
O        18.011097359207       28.954077284141       -5.129750130131
O        13.303913199855       23.231843975203       -5.099168566552
O        12.791886042009       28.448206975017       -5.115457558170
O        15.641899643495       26.085294467022       -8.906749100225
O        10.476516453115       20.890011144732       -8.893899523633
O        13.268287630672       28.925828287194      -12.653206454621
O        12.809253953111       23.704136823774      -12.667104419475
O        18.486190938414       28.471530117301      -12.645389336559
O        18.029908526316       23.249276378873      -12.645353286033
O        10.416075020468       20.884417197159       -1.373990765747
O        15.669570711898       26.107679649437       -1.375719242307
O        28.916854428159      -28.479443292747      -35.010576255426
O        28.479443292747      -23.261598216158      -35.010576255426
O        23.699009351569      -28.916854428159      -35.010576255426
O        23.261598216158      -23.699009351569      -35.010576255426
O        26.089226635229      -26.089226635229      -38.716926912731
O        20.871380932498      -31.307071711818      -38.716926912731
O        20.871380932498      -31.307071711818      -31.304226572460
O        26.089226635229      -26.089226635229      -31.304226572460
O        28.923183465776      -28.471847571008      -20.144125718093
O        28.471870112100      -23.252849768038      -20.143953260173
O        23.703405490579      -28.922322521304      -20.143512859155
O        23.251189240955      -23.702811282358      -20.139476174607
O        26.089226635229      -26.089226635229      -23.891526232190
O        20.871380932498      -31.307071711818      -23.891526232190
O        23.699009351569      -23.261598216158      -27.597875915156
O        23.261598216158      -28.479443292747      -27.597875915156
O        28.916854428159      -23.699009351569      -27.597875915156
O        28.479443292747      -28.916854428159      -27.597875915156
O        20.865143937672      -31.305799392424      -16.399363712747
O        26.090103859378      -26.087897336964      -16.399737858745
O        28.951116887440      -28.444626072155       -5.117617666700
O        28.445609114206      -23.226685195926       -5.115464378539
O        23.734768288879      -28.950703007952       -5.115813191735
O        23.227646949169      -23.732491012482       -5.113580982152
O        26.086995693299      -26.086104694038       -8.905743582858
O        20.879215214123      -31.306208262780       -8.906532797070
O        23.705261999932      -23.247829366019      -12.654100897395
O        23.250983240423      -28.467416368078      -12.653557216493
O        28.925872743236      -23.705960147631      -12.650690712525
O        28.469246579490      -28.925339896875      -12.649735860761
O        20.863497811841      -31.302295504958       -1.379312602822
O        26.091223400263      -26.090006807456       -1.374855004027
O        28.916854428159      -18.043753139568      -35.010576255426
O        28.479443292747      -12.825907436838      -35.010576255426
O        23.699009351569      -18.481164274980      -35.010576255426
O        23.261598216158      -13.263318572250      -35.010576255426
O        26.089226635229      -15.653535855909      -38.716926912731
O        20.871380932498      -20.871380932498      -38.716926912731
O        20.871380932498      -20.871380932498      -31.304226572460
O        26.089226635229      -15.653535855909      -31.304226572460
O        28.922832826573      -18.034775523684      -20.142664210292
O        28.470634735050      -12.816331855884      -20.141883765126
O        23.702355451394      -18.485288042466      -20.144485249012
O        23.247928296365      -13.266838739393      -20.133843523540
O        26.089226635229      -15.653535855909      -23.891526232190
O        20.871380932498      -20.871380932498      -23.891526232190
O        23.699009351569      -12.825907436838      -27.597875915156
O        23.261598216158      -18.043753139568      -27.597875915156
O        28.916854428159      -13.263318572250      -27.597875915156
O        28.479443292747      -18.481164274980      -27.597875915156
O        20.861502299090      -20.861081532046      -16.395468307287
O        26.087006337703      -15.652323019951      -16.397172425384
O        28.950843889775      -18.008110664566       -5.118976868956
O        28.443621115153      -12.788320792682       -5.112090244195
O        23.734058244492      -18.514802471252       -5.116394871840
O        23.223288378645      -13.298986719051       -5.099375126321
O        26.084520556209      -15.645583233553       -8.902532163048
O        20.875904178219      -20.874737676727       -8.903180098174
O        23.701618482926      -12.809426768147      -12.650614714119
O        23.246294693363      -18.027952460476      -12.647120736135
O        28.925149549879      -13.269278186421      -12.649248691494
O        28.468107002080      -18.486773876089      -12.647054481114
O        20.868209526134      -20.867105012644       -1.377950477551
O        26.098496033021      -15.660992574249       -1.371659173634
O        28.916854428159       -7.608062360249      -35.010576255426
O        28.479443292747       -2.390217283659      -35.010576255426
O        23.699009351569       -8.045473495660      -35.010576255426
O        23.261598216158       -2.827628419071      -35.010576255426
O        26.089226635229       -5.217845076589      -38.716926912731
O        20.871380932498      -10.435690779320      -38.716926912731
O        20.871380932498      -10.435690779320      -31.304226572460
O        26.089226635229       -5.217845076589      -31.304226572460
O        28.923358785377       -7.598786074900      -20.141989968026
O        28.468644857572       -2.381960982708      -20.139689554746
O        23.703115587095       -8.053042919459      -20.142563853423
O        23.245515147278       -2.834477780220      -20.131146554477
O        26.089226635229       -5.217845076589      -23.891526232190
O        20.871380932498      -10.435690779320      -23.891526232190
O        23.699009351569       -2.390217283659      -27.597875915156
O        23.261598216158       -7.608062360249      -27.597875915156
O        28.916854428159       -2.827628419071      -27.597875915156
O        28.479443292747       -8.045473495660      -27.597875915156
O        20.851968043471      -10.415374368203      -16.386646646197
O        26.084320817092       -5.222549277185      -16.393119177081
O        28.954375327464       -7.567332486093       -5.118198372467
O        28.435180102478       -2.347391714123       -5.108749237360
O        23.739237686436       -8.085002430545       -5.108920720942
O        23.210949635542       -2.868956258296       -5.077390151631
O        26.076651836805       -5.204882696618       -8.894826119580
O        20.870986463395      -10.449934244666       -8.887263303876
O        23.700072539725       -2.375685167112      -12.654046334437
O        23.238168629830       -7.591662463803      -12.632897342210
O        28.923468360128       -2.836860248378      -12.645363029419
O        28.464519211662       -8.052081166216      -12.639814171465
O        20.867917744225      -10.425337530705       -1.363523446872
O        26.102200911888       -5.227456347605       -1.365711811220
O        28.916854428159        2.827628419071      -35.010576255426
O        28.479443292747        8.045473495660      -35.010576255426
O        23.699009351569        2.390217283659      -35.010576255426
O        23.261598216158        7.608062360249      -35.010576255426
O        26.089226635229        5.217845076589      -38.716926912731
O        20.871380932498        0.000000000000      -38.716926912731
O        20.871380932498        0.000000000000      -31.304226572460
O        26.089226635229        5.217845076589      -31.304226572460
O        28.923267994869        2.835142742423      -20.141691820434
O        28.468716863837        8.051624082969      -20.139985753661
O        23.702222083268        2.380125762164      -20.139259871452
O        23.246794354228        7.598790457890      -20.135802918332
O        26.089226635229        5.217845076589      -23.891526232190
O        20.871380932498        0.000000000000      -23.891526232190
O        23.699009351569        8.045473495660      -27.597875915156
O        23.261598216158        2.827628419071      -27.597875915156
O        28.916854428159        7.608062360249      -27.597875915156
O        28.479443292747        2.390217283659      -27.597875915156
O        20.844978426641        0.015869554651      -16.384076341143
O        26.082808059386        5.210730857613      -16.392569650147
O        28.960700608232        2.869199827314       -5.117429619363
O        28.438744099521        8.083076419493       -5.114003845076
O        23.742377159587        2.344963537641       -5.101961020791
O        23.218233538847        7.568401935663       -5.087077025340
O        26.077482100347        5.223576775278       -8.895042422734
O        20.868340389694       -0.032394053242       -8.879913868311
O        23.700557799336        8.054183749152      -12.651102857725
O        23.236222582252        2.837372432071      -12.628990244687
O        28.922946158172        7.595592753586      -12.644208438255
O        28.464256858401        2.379743189748      -12.639984680709
O        20.863350668604        0.034775895257       -1.345252650675
O        26.105719826748        5.214951677022       -1.366675432031
O        28.916854428159       13.263318572250      -35.010576255426
O        28.479443292747       18.481164274980      -35.010576255426
O        23.699009351569       12.825907436838      -35.010576255426
O        23.261598216158       18.043753139568      -35.010576255426
O        26.089226635229       15.653535855909      -38.716926912731
O        20.871380932498       10.435690779320      -38.716926912731
O        20.871380932498       10.435690779320      -31.304226572460
O        26.089226635229       15.653535855909      -31.304226572460
O        28.922708850569       13.268452932010      -20.142651543891
O        28.469996696929       18.486381285410      -20.142375806085
O        23.701054955635       12.814919280808      -20.137715544875
O        23.249486136254       18.033624049587      -20.141929559037
O        26.089226635229       15.653535855909      -23.891526232190
O        20.871380932498       10.435690779320      -23.891526232190
O        23.699009351569       18.481164274980      -27.597875915156
O        23.261598216158       13.263318572250      -27.597875915156
O        28.916854428159       18.043753139568      -27.597875915156
O        28.479443292747       12.825907436838      -27.597875915156
O        20.850449650493       10.434351462792      -16.387279966244
O        26.085533653050       15.648042717106      -16.396438748467
O        28.953062308876       13.297745706728       -5.117935301063
O        28.444887799274       18.514065502784       -5.118128220092
O        23.731298839191       12.787903782487       -5.106487797622
O        23.229711337478       18.010096159054       -5.106782047859
O        26.082201328337       15.652043134730       -8.901842331366
O        20.872502977948       10.420879403693       -8.885568929164
O        23.702709221304       18.486371893289      -12.653065175533
O        23.240590544898       13.269177377650      -12.640982403368
O        28.923039453246       18.030848990750      -12.647192837186
O        28.466235465333       12.812308897169      -12.646217524313
O        20.854421891752       10.458585640863       -1.361944044108
O        26.098761516989       15.654381772987       -1.372397722243
O        28.916854428159       23.699009351569      -35.010576255426
O        28.479443292747       28.916854428159      -35.010576255426
O        23.699009351569       23.261598216158      -35.010576255426
O        23.261598216158       28.479443292747      -35.010576255426
O        26.089226635229       26.089226635229      -38.716926912731
O        20.871380932498       20.871380932498      -38.716926912731
O        20.871380932498       20.871380932498      -31.304226572460
O        26.089226635229       26.089226635229      -31.304226572460
O        28.922601780383       23.704498107382      -20.144529094246
O        28.471485035118       28.923743862359      -20.144508633137
O        23.701745589637       23.252869804564      -20.139492738362
O        23.252221122039       28.472583913335      -20.142879539108
O        26.089226635229       26.089226635229      -23.891526232190
O        20.871380932498       20.871380932498      -23.891526232190
O        23.699009351569       28.916854428159      -27.597875915156
O        23.261598216158       23.699009351569      -27.597875915156
O        28.916854428159       28.479443292747      -27.597875915156
O        28.479443292747       23.261598216158      -27.597875915156
O        20.859134232186       20.863656851765      -16.396072397178
O        26.090317373607       26.088288049219      -16.399878163494
O        28.951659125922       23.732919919365       -5.118636824807
O        28.445478876788       28.950801938299       -5.118167193634
O        23.734510944749       23.227440322496       -5.113399755185
O        23.228362002687       28.446082477131       -5.112138961121
O        26.084801693713       26.089432009619       -8.905795222800
O        20.880031076412       20.872381506510       -8.902929693170
O        23.706464817627       28.925863977256      -12.654728371411
O        23.248537531981       23.706126075111      -12.654552990475
O        28.925654846017       28.469187096054      -12.649697861558
O        28.468348066532       23.249933201238      -12.649073310558
O        20.864777018791       20.880570184187       -1.376171335387
O        26.094184423105       26.090614790789       -1.374663059336
Pt        0.000000000000        0.000000000000       20.704703599145
Pt        4.216156532927       -0.000092042791       18.041751617209
Pt        4.226010120677        0.000070127841       23.350589067314
Pt       -4.216156532927        0.000092042791       18.041751617209
Pt       -4.226010120677       -0.000070127841       23.350589067314
Pt       -2.616779674082        4.233990293256       20.711588275229
Pt        2.616426530313        4.234079831482       20.711159566274
Pt       -2.616426530313       -4.234079831482       20.711159566274
Pt        2.616779674082       -4.233990293256       20.711588275229
Pt       -0.000016905819       -2.610153845425       24.977881544862
Pt        0.000016905819        2.610153845425       24.977881544862
Pt        0.000450821833       -2.633706781615       16.447781517537
Pt       -0.000450821833        2.633706781615       16.447781517537
Pt        8.440503621954        0.000191599279       15.395643999854
Pt        8.618196925718        0.000125228287       20.704284633576
Pt        8.453324493962        0.000072006265       26.003273469775
Pt       -8.440503621954       -0.000191599279       15.395643999854
Pt       -8.618196925718       -0.000125228287       20.704284633576
Pt       -8.453324493962       -0.000072006265       26.003273469775
Pt       -5.234321988431        8.469725642690       20.721463196275
Pt       -0.000217897219        8.659066429413       20.709792569311
Pt        5.233792272778        8.469790135258       20.720404090289
Pt       -5.233792272778       -8.469790135258       20.720404090289
Pt        0.000217897219       -8.659066429413       20.709792569311
Pt        5.234321988431       -8.469725642690       20.721463196275
Pt       -0.000053848163       -5.224697568445       29.241373591208
Pt        0.000000000000        0.000000000000       29.437163022339
Pt        0.000053848163        5.224697568445       29.241373591208
Pt        0.001915992789       -5.268907536693       12.167198598959
Pt        0.000000000000        0.000000000000       12.053003199713
Pt       -0.001915992789        5.268907536693       12.167198598959
Pt        4.325770730828       -2.672858779357       27.772740451923
Pt        4.325805794749        2.672943308450       27.772698555366
Pt        4.319881244498       -2.679191573822       13.615250785382
Pt        4.318365982227        2.677918002145       13.615401807855
Pt       -4.325805794749       -2.672943308450       27.772698555366
Pt       -4.325770730828        2.672858779357       27.772740451923
Pt       -4.318365982227       -2.677918002145       13.615401807855
Pt       -4.319881244498        2.679191573822       13.615250785382
Pt        6.988224917972        4.319421656685       18.015605242638
Pt        6.994766217536        4.326116360900       23.414794079376
Pt       -6.988928700944        4.319278896438       18.016170358988
Pt       -6.995056121020        4.325964834673       23.415212070607
Pt        6.988928700944       -4.319278896438       18.016170358988
Pt        6.995056121020       -4.325964834673       23.415212070607
Pt       -6.988224917972       -4.319421656685       18.015605242638
Pt       -6.994766217536       -4.326116360900       23.414794079376
Pt       -2.670999765438        6.995905794946       25.066245280884
Pt        2.671050482895        6.995893898259       25.065884775626
Pt       -2.671050482895       -6.995893898259       25.065884775626
Pt        2.670999765438       -6.995905794946       25.066245280884
Pt       -2.678462119052        7.002400133902       16.351668867151
Pt        2.677162249434        7.002339398183       16.350685759569
Pt       -2.677162249434       -7.002339398183       16.350685759569
Pt        2.678462119052       -7.002400133902       16.351668867151
Pt       12.677438658376        0.000646177960       12.764712679512
Pt       12.883940103387        0.000337490233       18.059385196004
Pt       12.887559200877        0.000145264813       23.371449655335
Pt       12.693154808375        0.000079519962       28.647507434128
Pt      -12.677438658376       -0.000646177960       12.764712679512
Pt      -12.883940103387       -0.000337490233       18.059385196004
Pt      -12.887559200877       -0.000145264813       23.371449655335
Pt      -12.693154808375       -0.000079519962       28.647507434128
Pt       -7.862099836806       12.712872628281       20.736697953599
Pt       -2.628710172970       12.943154298823       20.721771087252
Pt        2.628363290615       12.943092310821       20.721162125668
Pt        7.861550710768       12.712793108319       20.735283214047
Pt       -7.861550710768      -12.712793108319       20.735283214047
Pt       -2.628363290615      -12.943092310821       20.721162125668
Pt        2.628710172970      -12.943154298823       20.721771087252
Pt        7.862099836806      -12.712872628281       20.736697953599
Pt       -0.000051343598       -7.848500044854       33.496512633298
Pt       -0.000016279677       -2.624655907183       33.738108641947
Pt        0.000016279677        2.624655907183       33.738108641947
Pt        0.000051343598        7.848500044854       33.496512633298
Pt        0.006389147195       -8.045258729148        7.901150862638
Pt        0.000167805904       -2.509955562411        7.723277568477
Pt       -0.000167805904        2.509955562411        7.723277568477
Pt       -0.006389147195        8.045258729148        7.901150862638
Pt        8.590112603968       -2.685843074278       30.447327010299
Pt        4.343902534481       -5.308666891625       32.065451936576
Pt        8.590137649625        2.685959536585       30.447288036757
Pt        4.410110729737        0.000032559355       32.338107909024
Pt        4.343980176019        5.308703833970       32.065419783405
Pt        8.586502272458       -2.688461597756       10.935164085980
Pt        4.303153249941       -5.335056248512        9.324994633835
Pt        8.584420978331        2.687472920432       10.934817221461
Pt        4.467304366764       -0.001829585271        9.029900619279
Pt        4.297837935306        5.331261205280        9.325935844859
Pt       -8.590137649625       -2.685959536585       30.447288036757
Pt       -4.343980176019       -5.308703833970       32.065419783405
Pt       -8.590112603968        2.685843074278       30.447327010299
Pt       -4.410110729737       -0.000032559355       32.338107909024
Pt       -4.343902534481        5.308666891625       32.065451936576
Pt       -8.584420978331       -2.687472920432       10.934817221461
Pt       -4.297837935306       -5.331261205280        9.325935844859
Pt       -8.586502272458        2.688461597756       10.935164085980
Pt       -4.467304366764        0.001829585271        9.029900619279
Pt       -4.303153249941        5.335056248512        9.324994633835
Pt        9.647576574309        8.583943858558       18.031615573435
Pt       11.260757347213        4.330590767589       15.374088708458
Pt        9.649401776590        8.593365408719       23.430579337972
Pt       11.511632809527        4.400305981018       20.726831801600
Pt       11.263297603012        4.341269609750       26.078191334023
Pt       -9.648427500519        8.583740362592       18.032804266447
Pt      -11.261710960617        4.329741719804       15.374916896212
Pt       -9.649851972281        8.593257086251       23.431386090278
Pt      -11.512183187848        4.399977882907       20.727431994137
Pt      -11.263548059585        4.341126223361       26.078557685312
Pt        9.648427500519       -8.583740362592       18.032804266447
Pt       11.261710960617       -4.329741719804       15.374916896212
Pt        9.649851972281       -8.593257086251       23.431386090278
Pt       11.512183187848       -4.399977882907       20.727431994137
Pt       11.263548059585       -4.341126223361       26.078557685312
Pt       -9.647576574309       -8.583943858558       18.031615573435
Pt      -11.260757347213       -4.330590767589       15.374088708458
Pt       -9.649401776590       -8.593365408719       23.430579337972
Pt      -11.511632809527       -4.400305981018       20.726831801600
Pt      -11.263297603012       -4.341269609750       26.078191334023
Pt       -2.679368771848        9.644572347708       29.348387141117
Pt       -5.308617426452       11.275357087035       25.082764216396
Pt        2.679520924217        9.644482809483       29.348097762572
Pt        0.000068875558       11.536595190086       25.138961140044
Pt        5.308669396191       11.275270679517       25.081983771230
Pt       -2.679520924217       -9.644482809483       29.348097762572
Pt       -5.308669396191      -11.275270679517       25.081983771230
Pt        2.679368771848       -9.644572347708       29.348387141117
Pt       -0.000068875558      -11.536595190086       25.138961140044
Pt        5.308617426452      -11.275357087035       25.082764216396
Pt       -2.704575973708        9.675326536533       12.064674801017
Pt       -5.318838559224       11.272136841639       16.367856527561
Pt        2.701122177557        9.674337859209       12.062647202527
Pt       -0.000398225952       11.528992580791       16.288685675611
Pt        5.317526166778       11.271766792051       16.366194306021
Pt       -2.701122177557       -9.674337859209       12.062647202527
Pt       -5.317526166778      -11.271766792051       16.366194306021
Pt        2.704575973708       -9.675326536533       12.064674801017
Pt        0.000398225952      -11.528992580791       16.288685675611
Pt        5.318838559224      -11.272136841639       16.367856527561
Pt        7.125755005578       -7.129888791327       27.893413253745
Pt        7.125768154548        7.129919472257       27.893083927321
Pt        7.125540239066       -7.113721819495       13.541383258075
Pt        7.123200348526        7.112858370457       13.540504404717
Pt       -7.125768154548       -7.129919472257       27.893083927321
Pt       -7.125755005578        7.129888791327       27.893413253745
Pt       -7.123200348526       -7.112858370457       13.540504404717
Pt       -7.125540239066        7.113721819495       13.541383258075
Pt       16.837951880466        0.000800834894       10.276771385122
Pt       17.158705979124        0.000408870357       15.492589709687
Pt       17.198951219810        0.000209757380       20.737534910400
Pt       17.157611483897        0.000149021661       25.980751634553
Pt       16.823814233023        0.000096425781       31.198358844668
Pt      -16.837951880466       -0.000800834894       10.276771385122
Pt      -17.158705979124       -0.000408870357       15.492589709687
Pt      -17.198951219810       -0.000209757380       20.737534910400
Pt      -17.157611483897       -0.000149021661       25.980751634553
Pt      -16.823814233023       -0.000096425781       31.198358844668
Pt      -10.418693543946       16.835828008721       20.744207180684
Pt       -5.218854416581       17.213187171458       20.742083122679
Pt       -0.000086407518       17.268794792233       20.739741787181
Pt        5.218495011398       17.213084484263       20.741391342319
Pt       10.418093074311       16.835638914008       20.742566394592
Pt      -10.418093074311      -16.835638914008       20.742566394592
Pt       -5.218495011398      -17.213084484263       20.741391342319
Pt        0.000086407518      -17.268794792233       20.739741787181
Pt        5.218854416581      -17.213187171458       20.742083122679
Pt       10.418693543946      -16.835828008721       20.744207180684
Pt       -0.000045082183      -10.411556783879       37.622002292649
Pt        0.000001878424       -5.213587314836       38.017910141020
Pt        0.000000000000        0.000000000000       38.079150240922
Pt       -0.000001878424        5.213587314836       38.017910141020
Pt        0.000045082183       10.411556783879       37.622002292649
Pt        0.007958883771      -10.391402543393        3.535810234953
Pt       -0.008388416794       -5.262460784486        3.711302245736
Pt        0.000000000000        0.000000000000        3.144338549930
Pt        0.008388416794        5.262460784486        3.711302245736
Pt       -0.007958883771       10.391402543393        3.535810234953
Pt       12.813027707536       -2.709565694797       33.123960653935
Pt        8.625378767968       -5.328091051198       34.776747673574
Pt        4.384765776762       -7.918738086381       36.332269400340
Pt       12.812996400464        2.709568199363       33.123989884091
Pt        8.751689653355       -0.000023793375       35.215323755043
Pt        4.491153467853       -2.631606077103       36.839154407778
Pt        8.625380020251        5.328039081459       34.776786647115
Pt        4.491154720136        2.631569760900       36.839176817564
Pt        4.384800840682        7.918709910016       36.332260631293
Pt       12.830533995895       -2.700667598875        8.278358231518
Pt        8.649098257780       -5.337588990614        6.585858147556
Pt        4.478976269240       -8.007863684272        5.057664668002
Pt       12.828310567662        2.700099688595        8.277948034995
Pt        8.839423338838       -0.001607305062        6.084207286725
Pt        4.578767560322       -2.688629403661        4.560983908035
Pt        8.643058497505        5.334827080748        6.585673023234
Pt        4.582350341608        2.682118158886        4.557594184274
Pt        4.466200479416        8.006077928901        5.064449961556
Pt      -12.812996400464       -2.709568199363       33.123989884091
Pt       -8.625380020251       -5.328039081459       34.776786647115
Pt       -4.384800840682       -7.918709910016       36.332260631293
Pt      -12.813027707536        2.709565694797       33.123960653935
Pt       -8.751689653355        0.000023793375       35.215323755043
Pt       -4.491154720136       -2.631569760900       36.839176817564
Pt       -8.625378767968        5.328091051198       34.776747673574
Pt       -4.491153467853        2.631606077103       36.839154407778
Pt       -4.384765776762        7.918738086381       36.332269400340
Pt      -12.828310567662       -2.700099688595        8.277948034995
Pt       -8.643058497505       -5.334827080748        6.585673023234
Pt       -4.466200479416       -8.006077928901        5.064449961556
Pt      -12.830533995895        2.700667598875        8.278358231518
Pt       -8.839423338838        0.001607305062        6.084207286725
Pt       -4.582350341608       -2.682118158886        4.557594184274
Pt       -8.649098257780        5.337588990614        6.585858147556
Pt       -4.578767560322        2.688629403661        4.560983908035
Pt       -4.478976269240        8.007863684272        5.057664668002
Pt       12.317729796529       12.806041221412       18.029098857001
Pt       13.963119284809        8.609540520389       15.393705066171
Pt       15.524660921349        4.371001309613       12.780413170655
Pt       12.309551763256       12.821523820657       23.476332326869
Pt       14.377404512489        8.744433300274       20.756153545454
Pt       15.993182520062        4.482500193232       18.107360651099
Pt       13.946370001444        8.632996404657       26.117104466409
Pt       15.982859952377        4.487767294977       23.398197196781
Pt       15.508770077889        4.389615242170       28.717181408384
Pt      -12.318742267228       12.805898461165       18.030964715294
Pt      -13.964439190953        8.608831102144       15.395401389559
Pt      -15.526034675655        4.369491056474       12.781748988785
Pt      -12.310159120447       12.821460580372       23.477358305346
Pt      -14.378301147023        8.744141518366       20.757207779748
Pt      -15.994059744211        4.481979243559       18.108301862123
Pt      -13.946854634914        8.632854896693       26.117707581962
Pt      -15.983419722819        4.487501184867       23.398753544084
Pt      -15.509044327837        4.389472481923       28.717467863913
Pt       12.318742267228      -12.805898461165       18.030964715294
Pt       13.964439190953       -8.608831102144       15.395401389559
Pt       15.526034675655       -4.369491056474       12.781748988785
Pt       12.310159120447      -12.821460580372       23.477358305346
Pt       14.378301147023       -8.744141518366       20.757207779748
Pt       15.994059744211       -4.481979243559       18.108301862123
Pt       13.946854634914       -8.632854896693       26.117707581962
Pt       15.983419722819       -4.487501184867       23.398753544084
Pt       15.509044327837       -4.389472481923       28.717467863913
Pt      -12.317729796529      -12.806041221412       18.029098857001
Pt      -13.963119284809       -8.609540520389       15.393705066171
Pt      -15.524660921349       -4.371001309613       12.780413170655
Pt      -12.309551763256      -12.821523820657       23.476332326869
Pt      -14.377404512489       -8.744433300274       20.756153545454
Pt      -15.993182520062       -4.482500193232       18.107360651099
Pt      -13.946370001444       -8.632996404657       26.117104466409
Pt      -15.982859952377       -4.487767294977       23.398197196781
Pt      -15.508770077889       -4.389615242170       28.717181408384
Pt       -2.707762407467       12.302401228077       33.585641225070
Pt       -5.332742655913       13.956007570399       29.386599724097
Pt       -7.928425746651       15.529851007697       25.139563281258
Pt        2.707820012479       12.302322960398       33.585395691759
Pt        0.000069501699       14.386191781377       29.501002657451
Pt       -2.635429922842       16.021487243597       25.237458971162
Pt        5.332816540602       13.955846025909       29.386025838700
Pt        2.635517582643       16.021395826947       25.237151080186
Pt        7.928448287743       15.529646885590       25.138570430292
Pt       -2.707820012479      -12.302322960398       33.585395691759
Pt       -5.332816540602      -13.955846025909       29.386025838700
Pt       -7.928448287743      -15.529646885590       25.138570430292
Pt        2.707762407467      -12.302401228077       33.585641225070
Pt       -0.000069501699      -14.386191781377       29.501002657451
Pt       -2.635517582643      -16.021395826947       25.237151080186
Pt        5.332742655913      -13.956007570399       29.386599724097
Pt        2.635429922842      -16.021487243597       25.237458971162
Pt        7.928425746651      -15.529851007697       25.139563281258
Pt       -2.744052312712       12.344750303982        7.783005494973
Pt       -5.355506653896       13.965839869341       12.077444481848
Pt       -7.938057680334       15.521550876845       16.343461039337
Pt        2.732996533408       12.342160583010        7.780111709526
Pt       -0.001293608203       14.360578213727       11.921908872927
Pt       -2.635270882918       16.006949491776       16.230457256119
Pt        5.351746048442       13.964420406710       12.075363294739
Pt        2.634411190729       16.006787947286       16.229721630525
Pt        7.936681421462       15.520917847855       16.341639026278
Pt       -2.732996533408      -12.342160583010        7.780111709526
Pt       -5.351746048442      -13.964420406710       12.075363294739
Pt       -7.936681421462      -15.520917847855       16.341639026278
Pt        2.744052312712      -12.344750303982        7.783005494973
Pt        0.001293608203      -14.360578213727       11.921908872927
Pt       -2.634411190729      -16.006787947286       16.229721630525
Pt        5.355506653896      -13.965839869341       12.077444481848
Pt        2.635270882918      -16.006949491776       16.230457256119
Pt        7.938057680334      -15.521550876845       16.343461039337
Pt       11.515096623941       -7.266848464086       30.696725521931
Pt       11.514993310605        7.266862865339       30.696537474593
Pt        9.894942513885      -11.528045854943       28.042077827322
Pt        9.894836695982       11.528023939993       28.041591632394
Pt        7.259828792467       -9.894908702247       32.310764072395
Pt        7.259812512789        9.894849844952       32.310531205485
Pt       11.525160595214       -7.224101162229       10.771420649245
Pt       11.521379327092        7.223459993400       10.769302437271
Pt        9.907655689565      -11.497608493683       13.443294649141
Pt        9.905017129561       11.496786996121       13.441416124446
Pt        7.283697930081       -9.886282977849        9.133200965033
Pt        7.277354491211        9.884165993660        9.132518928059
Pt      -11.514993310605       -7.266862865339       30.696537474593
Pt      -11.515096623941        7.266848464086       30.696725521931
Pt       -9.894836695982      -11.528023939993       28.041591632394
Pt       -9.894942513885       11.528045854943       28.042077827322
Pt       -7.259812512789       -9.894849844952       32.310531205485
Pt       -7.259828792467        9.894908702247       32.310764072395
Pt      -11.521379327092       -7.223459993400       10.769302437271
Pt      -11.525160595214        7.224101162229       10.771420649245
Pt       -9.905017129561      -11.496786996121       13.441416124446
Pt       -9.907655689565       11.497608493683       13.443294649141
Pt       -7.277354491211       -9.884165993660        9.132518928059
Pt       -7.283697930081        9.886282977849        9.133200965033
Sr      -31.307071711818      -26.089226635229      -38.716926912731
Sr      -26.089226635229      -31.307071711818      -38.716926912731
Sr      -26.089226635229      -31.307071711818      -31.304226572460
Sr      -31.307071711818      -26.089226635229      -31.304226572460
Sr      -31.307071711818      -26.089226635229      -23.891526232190
Sr      -26.089226635229      -31.307071711818      -23.891526232190
Sr      -26.090385623024       31.306972781471      -16.393436811443
Sr       31.306799966436      -26.087381396422      -16.393051947722
Sr       31.306883243246      -26.086886118548       -8.939620359360
Sr      -26.089691232173      -31.306072390089       -8.940431983359
Sr      -26.088485283771      -31.304540221999       -1.686083090374
Sr       31.306647814067      -26.084858046442       -1.684974293122
Sr      -31.307071711818      -15.653535855909      -38.716926912731
Sr      -26.089226635229      -20.871380932498      -38.716926912731
Sr      -26.089226635229      -20.871380932498      -31.304226572460
Sr      -31.307071711818      -15.653535855909      -31.304226572460
Sr      -31.307071711818      -15.653535855909      -23.891526232190
Sr      -26.089226635229      -20.871380932498      -23.891526232190
Sr      -26.089777639691      -20.868670992371      -16.391709309221
Sr       31.306642804936      -15.650174728690      -16.391737565039
Sr       31.306343509330      -15.648727715836       -8.938713250184
Sr      -26.088610512058      -20.866600968789       -8.938772684835
Sr      -26.084540592735      -20.860550564110       -1.685441975619
Sr       31.305558954113      -15.645212557824       -1.683331558353
Sr      -31.307071711818       -5.217845076589      -38.716926912731
Sr      -26.089226635229      -10.435690779320      -38.716926912731
Sr      -26.089226635229      -10.435690779320      -31.304226572460
Sr      -31.307071711818       -5.217845076589      -31.304226572460
Sr      -31.307071711818       -5.217845076589      -23.891526232190
Sr      -26.089226635229      -10.435690779320      -23.891526232190
Sr      -26.086447819544      -10.431925790876      -16.390592717261
Sr      -31.307034143332       -5.215160808261      -16.389452741176
Sr       31.306907036621       -5.215294176386       -8.938982167620
Sr      -26.085454133088      -10.430123755828       -8.937297536294
Sr      -26.080696710470      -10.422396544388       -1.680048037492
Sr       31.307004714685       -5.216806934091       -1.675862279149
Sr      -31.307071711818        5.217845076589      -38.716926912731
Sr      -26.089226635229        0.000000000000      -38.716926912731
Sr      -26.089226635229        0.000000000000      -31.304226572460
Sr      -31.307071711818        5.217845076589      -31.304226572460
Sr      -31.307071711818        5.217845076589      -23.891526232190
Sr      -26.089226635229        0.000000000000      -23.891526232190
Sr      -26.085973830478       -0.000030680930      -16.388975315294
Sr       31.307034143332        5.215160808261      -16.389452741176
Sr      -31.306907036621        5.215294176386       -8.938982167620
Sr      -26.078117633903        0.001371875882       -8.932418048913
Sr      -26.074751497552        0.007920063002       -1.672012667599
Sr      -31.307004714685        5.216806934091       -1.675862279149
Sr      -31.307071711818       15.653535855909      -38.716926912731
Sr      -26.089226635229       10.435690779320      -38.716926912731
Sr      -26.089226635229       10.435690779320      -31.304226572460
Sr      -31.307071711818       15.653535855909      -31.304226572460
Sr      -31.307071711818       15.653535855909      -23.891526232190
Sr      -26.089226635229       10.435690779320      -23.891526232190
Sr      -26.086388336107       10.431946453543      -16.390865532051
Sr      -31.306642804936       15.650174728690      -16.391737565039
Sr      -31.306343509330       15.648727715835       -8.938713250184
Sr      -26.086320086691       10.431971499200       -8.936370940347
Sr      -26.086845419354       10.433259472131       -1.678093514392
Sr      -31.305558954113       15.645212557824       -1.683331558353
Sr      -31.307071711818       26.089226635229      -38.716926912731
Sr      -26.089226635229       20.871380932498      -38.716926912731
Sr      -26.089226635229       20.871380932498      -31.304226572460
Sr      -31.307071711818       26.089226635229      -31.304226572460
Sr      -31.307071711818       26.089226635229      -23.891526232190
Sr      -26.089226635229       20.871380932498      -23.891526232190
Sr      -26.090189014613       20.867800029636      -16.393591731270
Sr      -31.306799966436       26.087381396422      -16.393051947722
Sr      -31.306883243246       26.086886118548       -8.939620359360
Sr      -26.089805816055       20.867739920058       -8.939144882155
Sr      -26.087645628107       20.865755677853       -1.684557276229
Sr      -31.306647814067       26.084858046442       -1.684974293122
Sr      -20.871380932498      -26.089226635229      -38.716926912731
Sr      -15.653535855909      -31.307071711818      -38.716926912731
Sr      -15.653535855909      -31.307071711818      -31.304226572460
Sr      -20.871380932498      -26.089226635229      -31.304226572460
Sr      -20.871380932498      -26.089226635229      -23.891526232190
Sr      -15.653535855909      -31.307071711818      -23.891526232190
Sr      -15.655642195694       31.305948414085      -16.392567701470
Sr      -20.872422205703      -26.088904172390      -16.392891181864
Sr      -20.871695255498      -26.087809051022       -8.940551826999
Sr      -15.654446891696      -31.305741161270       -8.943587865872
Sr      -15.655524481104      -31.299477868504       -1.686222420785
Sr      -20.865421318327      -26.081528226295       -1.684613787864
Sr      -20.871380932498      -15.653535855909      -38.716926912731
Sr      -15.653535855909      -20.871380932498      -38.716926912731
Sr      -15.653535855909      -20.871380932498      -31.304226572460
Sr      -20.871380932498      -15.653535855909      -31.304226572460
Sr      -20.871380932498      -15.653535855909      -23.891526232190
Sr      -15.653535855909      -20.871380932498      -23.891526232190
Sr      -15.651080755345      -20.869142476871      -16.387924004015
Sr      -20.869059826201      -15.652971702477      -16.388783370603
Sr      -20.867032380237      -15.648578694174       -8.930840594826
Sr      -15.653629150983      -20.867140076564       -8.937891882800
Sr      -15.655764919415      -20.857264573863       -1.686716410422
Sr      -20.864994916010      -15.642503243838       -1.679163338103
Sr      -20.871380932498       -5.217845076589      -38.716926912731
Sr      -15.653535855909      -10.435690779320      -38.716926912731
Sr      -15.653535855909      -10.435690779320      -31.304226572460
Sr      -20.871380932498       -5.217845076589      -31.304226572460
Sr      -20.871380932498       -5.217845076589      -23.891526232190
Sr      -15.653535855909      -10.435690779320      -23.891526232190
Sr      -15.646488634067      -10.432389135537      -16.376763930442
Sr      -20.862931153843       -5.218114943547      -16.382424837327
Sr      -20.856165069505       -5.214215960836       -8.917264161688
Sr      -15.644370397595      -10.433432913308       -8.902157042712
Sr      -15.700427587919      -10.449191014783       -1.641675662992
Sr      -20.864637389251       -5.194508159194       -1.659419342042
Sr      -20.871380932498        5.217845076589      -38.716926912731
Sr      -15.653535855909        0.000000000000      -38.716926912731
Sr      -15.653535855909        0.000000000000      -31.304226572460
Sr      -20.871380932498        5.217845076589      -31.304226572460
Sr      -20.871380932498        5.217845076589      -23.891526232190
Sr      -15.653535855909        0.000000000000      -23.891526232190
Sr      -15.647501104766       -0.003021132420      -16.367258283701
Sr      -20.860663269568        5.212551676904      -16.381527471537
Sr      -20.853401907356        5.216227753265       -8.916291771831
Sr      -15.653231551172        0.000040699193       -8.881850853317
Sr      -15.660550518397        0.016740517386       -1.521026245295
Sr      -20.862859147578        5.238994881955       -1.661384582866
Sr      -20.871380932498       15.653535855909      -38.716926912731
Sr      -15.653535855909       10.435690779320      -38.716926912731
Sr      -15.653535855909       10.435690779320      -31.304226572460
Sr      -20.871380932498       15.653535855909      -31.304226572460
Sr      -20.871380932498       15.653535855909      -23.891526232190
Sr      -15.653535855909       10.435690779320      -23.891526232190
Sr      -15.646643291001       10.424971864107      -16.371502502357
Sr      -20.868434310909       15.646863692786      -16.389279308917
Sr      -20.868034206532       15.648109714240       -8.935703518451
Sr      -15.635482319936       10.429567742234       -8.889298697074
Sr      -15.685534187764       10.460339463020       -1.624912168508
Sr      -20.858144302578       15.659677677237       -1.681588466715
Sr      -20.871380932498       26.089226635229      -38.716926912731
Sr      -15.653535855909       20.871380932498      -38.716926912731
Sr      -15.653535855909       20.871380932498      -31.304226572460
Sr      -20.871380932498       26.089226635229      -31.304226572460
Sr      -20.871380932498       26.089226635229      -23.891526232190
Sr      -15.653535855909       20.871380932498      -23.891526232190
Sr      -15.655052370463       20.866927814618      -16.391571927488
Sr      -20.872451008209       26.087822826133      -16.392109762359
Sr      -20.872165487715       26.086887370831       -8.942560913056
Sr      -15.652967945628       20.868372949048       -8.936544372607
Sr      -15.658863693373       20.876581663251       -1.682772288034
Sr      -20.867063061168       26.090136418733       -1.686219497769
Sr      -10.435690779320      -26.089226635229      -38.716926912731
Sr       -5.217845076589      -31.307071711818      -38.716926912731
Sr       -5.217845076589      -31.307071711818      -31.304226572460
Sr      -10.435690779320      -26.089226635229      -31.304226572460
Sr      -10.435690779320      -26.089226635229      -23.891526232190
Sr       -5.217845076589      -31.307071711818      -23.891526232190
Sr       -5.215963521579       31.305348570591      -16.390054882390
Sr      -10.434346453661      -26.088832166125      -16.394559249434
Sr      -10.438910398575      -26.089755724741       -8.943734016652
Sr       -5.216738058533       31.303468894005       -8.942436197724
Sr       -5.227597229427      -31.305476929585       -1.675458902995
Sr      -10.442260255248      -26.087238010034       -1.685105828824
Sr      -10.435690779320      -15.653535855909      -38.716926912731
Sr       -5.217845076589      -20.871380932498      -38.716926912731
Sr       -5.217845076589      -20.871380932498      -31.304226572460
Sr      -10.435690779320      -15.653535855909      -31.304226572460
Sr      -10.435690779320      -15.653535855909      -23.891526232190
Sr       -5.217845076589      -20.871380932498      -23.891526232190
Sr       -5.211700750695      -20.861447824785      -16.373280670182
Sr      -10.422039643771      -15.647797895806      -16.365323247372
Sr      -10.426257332472      -15.638440212071       -8.879531927605
Sr       -5.213120839468      -20.858334649574       -8.912321342303
Sr       -5.285761385678      -20.895263219083       -1.665460240955
Sr      -10.437544784107      -15.685966225354       -1.618353895833
Sr      -10.435690779320       -5.217845076589      -38.716926912731
Sr       -5.217845076589      -10.435690779320      -38.716926912731
Sr       -5.217845076589      -10.435690779320      -31.304226572460
Sr      -10.435690779320       -5.217845076589      -31.304226572460
Sr      -10.435690779320       -5.217845076589      -23.891526232190
Sr       -5.217845076589      -10.435690779320      -23.891526232190
Sr       -5.272634956651      -10.431314050694      -16.383265691482
Sr      -10.435046479784       -5.224469652963      -16.347985867491
Sr      -10.454218930500       -5.221863026173       -8.840311878581
Sr       -5.299711816833      -10.440454463351       -8.881147380895
Sr       -5.193413663967      -10.298425549541       -1.250438793556
Sr      -10.410678307446       -5.111719738759       -1.228595097953
Sr      -10.435690779320        5.217845076589      -38.716926912731
Sr       -5.217845076589        0.000000000000      -38.716926912731
Sr       -5.217845076589        0.000000000000      -31.304226572460
Sr      -10.435690779320        5.217845076589      -31.304226572460
Sr      -10.435690779320        5.217845076589      -23.891526232190
Sr       -5.217845076589        0.000000000000      -23.891526232190
Sr       -5.272188517808       -0.001140829693      -16.358299240877
Sr      -10.432362211455        5.208765399651      -16.333454582589
Sr      -10.441782509333        5.217516352336       -8.816121001449
Sr       -5.275755019417       -0.010156014063       -8.838610683500
Sr       -5.236637459455        0.004821289044       -1.187500421588
Sr      -10.374489210972        5.212031353372       -1.208951458761
Sr      -10.435690779320       15.653535855909      -38.716926912731
Sr       -5.217845076589       10.435690779320      -38.716926912731
Sr       -5.217845076589       10.435690779320      -31.304226572460
Sr      -10.435690779320       15.653535855909      -31.304226572460
Sr      -10.435690779320       15.653535855909      -23.891526232190
Sr       -5.217845076589       10.435690779320      -23.891526232190
Sr       -5.278084891694       10.430106850009      -16.384783710919
Sr      -10.432205049955       15.636419653663      -16.367594430495
Sr      -10.432119894720       15.642287225043       -8.902575033944
Sr       -5.312982258390       10.423026442671       -8.864468653864
Sr       -5.133017939645       10.528446745246       -1.196713766769
Sr      -10.452324226520       15.756441574484       -1.632028737164
Sr      -10.435690779320       26.089226635229      -38.716926912731
Sr       -5.217845076589       20.871380932498      -38.716926912731
Sr       -5.217845076589       20.871380932498      -31.304226572460
Sr      -10.435690779320       26.089226635229      -31.304226572460
Sr      -10.435690779320       26.089226635229      -23.891526232190
Sr       -5.217845076589       20.871380932498      -23.891526232190
Sr       -5.220150529350       20.857317169744      -16.373156929188
Sr      -10.433515563977       26.085749045703      -16.389264693839
Sr      -10.435603745660       26.087750819868       -8.942693423097
Sr       -5.209908733910       20.853972322202       -8.898918341424
Sr       -5.225798951228       20.895387821228       -1.644899749203
Sr      -10.431546975308       26.095220687179       -1.682153583065
Sr        0.000000000000      -26.089226635229      -38.716926912731
Sr        5.217845076589      -31.307071711818      -38.716926912731
Sr        5.217845076589      -31.307071711818      -31.304226572460
Sr        0.000000000000      -26.089226635229      -31.304226572460
Sr        0.000000000000      -26.089226635229      -23.891526232190
Sr        5.217845076589      -31.307071711818      -23.891526232190
Sr        5.215963521579      -31.305348570591      -16.390054882390
Sr       -0.000294286474      -26.089535322956      -16.388450146824
Sr       -0.000373806436      -26.080301615225       -8.925534347168
Sr        5.216738058533      -31.303468894005       -8.942436197724
Sr        5.227597229427       31.305476929585       -1.675458902995
Sr       -0.010397704657      -26.080638479317       -1.670546288105
Sr        0.000000000000      -15.653535855909      -38.716926912731
Sr        5.217845076589      -20.871380932498      -38.716926912731
Sr        5.217845076589      -20.871380932498      -31.304226572460
Sr        0.000000000000      -15.653535855909      -31.304226572460
Sr        0.000000000000      -15.653535855909      -23.891526232190
Sr        5.217845076589      -20.871380932498      -23.891526232190
Sr        5.220150529350      -20.857317169744      -16.373156929188
Sr       -0.005141873458      -15.702153859853      -16.399181511442
Sr        0.016825672621      -15.739132520676       -8.905710455347
Sr        5.209908733910      -20.853972322202       -8.898918341424
Sr        5.225798951228      -20.895387821228       -1.644899749203
Sr       -0.052120012986      -15.747558505957       -1.445941769158
Sr        0.000000000000       -5.217845076589      -38.716926912731
Sr        5.217845076589      -10.435690779320      -38.716926912731
Sr        5.217845076589      -10.435690779320      -31.304226572460
Sr        0.000000000000       -5.217845076589      -31.304226572460
Sr        0.000000000000       -5.217845076589      -23.891526232190
Sr        5.217845076589      -10.435690779320      -23.891526232190
Sr        5.278084891694      -10.430106850009      -16.384783710919
Sr       -0.000788312066       -5.213202863996      -16.430687722290
Sr        0.009491051860       -5.187459058927       -8.975987545156
Sr        5.312982258390      -10.423026442671       -8.864468653864
Sr        5.133017939645      -10.528446745246       -1.196713766769
Sr        0.017289017282       -5.039969565668       -1.686384160981
Sr        0.000000000000        5.217845076589      -38.716926912731
Sr        5.217845076589        0.000000000000      -38.716926912731
Sr        5.217845076589        0.000000000000      -31.304226572460
Sr        0.000000000000        5.217845076589      -31.304226572460
Sr        0.000000000000        5.217845076589      -23.891526232190
Sr        5.217845076589        0.000000000000      -23.891526232190
Sr        5.272188517808        0.001140829693      -16.358299240877
Sr        0.000788312066        5.213202863996      -16.430687722290
Sr       -0.009491051860        5.187459058927       -8.975987545156
Sr        5.275755019417        0.010156014063       -8.838610683500
Sr        5.236637459455       -0.004821289044       -1.187500421588
Sr       -0.017289017282        5.039969565668       -1.686384160981
Sr        0.000000000000       15.653535855909      -38.716926912731
Sr        5.217845076589       10.435690779320      -38.716926912731
Sr        5.217845076589       10.435690779320      -31.304226572460
Sr        0.000000000000       15.653535855909      -31.304226572460
Sr        0.000000000000       15.653535855909      -23.891526232190
Sr        5.217845076589       10.435690779320      -23.891526232190
Sr        5.272634956651       10.431314050694      -16.383265691482
Sr        0.005141873458       15.702153859853      -16.399181511442
Sr       -0.016825672621       15.739132520676       -8.905710455347
Sr        5.299711816833       10.440454463351       -8.881147380895
Sr        5.193413663967       10.298425549541       -1.250438793556
Sr        0.052120012986       15.747558505957       -1.445941769158
Sr        0.000000000000       26.089226635229      -38.716926912731
Sr        5.217845076589       20.871380932498      -38.716926912731
Sr        5.217845076589       20.871380932498      -31.304226572460
Sr        0.000000000000       26.089226635229      -31.304226572460
Sr        0.000000000000       26.089226635229      -23.891526232190
Sr        5.217845076589       20.871380932498      -23.891526232190
Sr        5.211700750695       20.861447824785      -16.373280670182
Sr        0.000294286474       26.089535322956      -16.388450146824
Sr        0.000373806436       26.080301615225       -8.925534347168
Sr        5.213120839468       20.858334649574       -8.912321342303
Sr        5.285761385678       20.895263219083       -1.665460240955
Sr        0.010397704657       26.080638479317       -1.670546288105
Sr       10.435690779320      -26.089226635229      -38.716926912731
Sr       15.653535855909      -31.307071711818      -38.716926912731
Sr       15.653535855909      -31.307071711818      -31.304226572460
Sr       10.435690779320      -26.089226635229      -31.304226572460
Sr       10.435690779320      -26.089226635229      -23.891526232190
Sr       15.653535855909      -31.307071711818      -23.891526232190
Sr       15.655642195694      -31.305948414085      -16.392567701470
Sr       10.433515563977      -26.085749045703      -16.389264693839
Sr       10.435603745660      -26.087750819868       -8.942693423097
Sr       15.654446891696       31.305741161270       -8.943587865872
Sr       15.655524481104       31.299477868504       -1.686222420785
Sr       10.431546975308      -26.095220687179       -1.682153583065
Sr       10.435690779320      -15.653535855909      -38.716926912731
Sr       15.653535855909      -20.871380932498      -38.716926912731
Sr       15.653535855909      -20.871380932498      -31.304226572460
Sr       10.435690779320      -15.653535855909      -31.304226572460
Sr       10.435690779320      -15.653535855909      -23.891526232190
Sr       15.653535855909      -20.871380932498      -23.891526232190
Sr       15.655052370463      -20.866927814618      -16.391571927488
Sr       10.432205049955      -15.636419653663      -16.367594430495
Sr       10.432119894720      -15.642287225043       -8.902575033944
Sr       15.652967945628      -20.868372949048       -8.936544372607
Sr       15.658863693373      -20.876581663251       -1.682772288034
Sr       10.452324226520      -15.756441574484       -1.632028737164
Sr       10.435690779320       -5.217845076589      -38.716926912731
Sr       15.653535855909      -10.435690779320      -38.716926912731
Sr       15.653535855909      -10.435690779320      -31.304226572460
Sr       10.435690779320       -5.217845076589      -31.304226572460
Sr       10.435690779320       -5.217845076589      -23.891526232190
Sr       15.653535855909      -10.435690779320      -23.891526232190
Sr       15.646643291001      -10.424971864107      -16.371502502357
Sr       10.432362211455       -5.208765399651      -16.333454582589
Sr       10.441782509334       -5.217516352336       -8.816121001449
Sr       15.635482319936      -10.429567742234       -8.889298697074
Sr       15.685534187764      -10.460339463020       -1.624912168508
Sr       10.374489210972       -5.212031353372       -1.208951458761
Sr       10.435690779320        5.217845076589      -38.716926912731
Sr       15.653535855909        0.000000000000      -38.716926912731
Sr       15.653535855909        0.000000000000      -31.304226572460
Sr       10.435690779320        5.217845076589      -31.304226572460
Sr       10.435690779320        5.217845076589      -23.891526232190
Sr       15.653535855909        0.000000000000      -23.891526232190
Sr       15.647501104766        0.003021132420      -16.367258283701
Sr       10.435046479784        5.224469652963      -16.347985867491
Sr       10.454218930500        5.221863026173       -8.840311878581
Sr       15.653231551172       -0.000040699193       -8.881850853317
Sr       15.660550518397       -0.016740517386       -1.521026245295
Sr       10.410678307446        5.111719738759       -1.228595097953
Sr       10.435690779320       15.653535855909      -38.716926912731
Sr       15.653535855909       10.435690779320      -38.716926912731
Sr       15.653535855909       10.435690779320      -31.304226572460
Sr       10.435690779320       15.653535855909      -31.304226572460
Sr       10.435690779320       15.653535855909      -23.891526232190
Sr       15.653535855909       10.435690779320      -23.891526232190
Sr       15.646488634067       10.432389135537      -16.376763930442
Sr       10.422039643771       15.647797895806      -16.365323247372
Sr       10.426257332472       15.638440212071       -8.879531927605
Sr       15.644370397595       10.433432913308       -8.902157042712
Sr       15.700427587919       10.449191014783       -1.641675662992
Sr       10.437544784107       15.685966225354       -1.618353895833
Sr       10.435690779320       26.089226635229      -38.716926912731
Sr       15.653535855909       20.871380932498      -38.716926912731
Sr       15.653535855909       20.871380932498      -31.304226572460
Sr       10.435690779320       26.089226635229      -31.304226572460
Sr       10.435690779320       26.089226635229      -23.891526232190
Sr       15.653535855909       20.871380932498      -23.891526232190
Sr       15.651080755345       20.869142476871      -16.387924004015
Sr       10.434346453661       26.088832166125      -16.394559249434
Sr       10.438910398575       26.089755724741       -8.943734016652
Sr       15.653629150983       20.867140076564       -8.937891882800
Sr       15.655764919415       20.857264573863       -1.686716410422
Sr       10.442260255248       26.087238010034       -1.685105828824
Sr       20.871380932498      -26.089226635229      -38.716926912731
Sr       26.089226635229      -31.307071711818      -38.716926912731
Sr       26.089226635229      -31.307071711818      -31.304226572460
Sr       20.871380932498      -26.089226635229      -31.304226572460
Sr       20.871380932498      -26.089226635229      -23.891526232190
Sr       26.089226635229      -31.307071711818      -23.891526232190
Sr       26.090385623024      -31.306972781471      -16.393436811443
Sr       20.872451008209      -26.087822826133      -16.392109762359
Sr       20.872165487715      -26.086887370831       -8.942560913056
Sr       26.089691232173       31.306072390089       -8.940431983359
Sr       26.088485283771       31.304540221999       -1.686083090374
Sr       20.867063061168      -26.090136418733       -1.686219497769
Sr       20.871380932498      -15.653535855909      -38.716926912731
Sr       26.089226635229      -20.871380932498      -38.716926912731
Sr       26.089226635229      -20.871380932498      -31.304226572460
Sr       20.871380932498      -15.653535855909      -31.304226572460
Sr       20.871380932498      -15.653535855909      -23.891526232190
Sr       26.089226635229      -20.871380932498      -23.891526232190
Sr       26.090189014613      -20.867800029636      -16.393591731270
Sr       20.868434310909      -15.646863692786      -16.389279308917
Sr       20.868034206532      -15.648109714240       -8.935703518451
Sr       26.089805816055      -20.867739920058       -8.939144882155
Sr       26.087645628107      -20.865755677853       -1.684557276229
Sr       20.858144302578      -15.659677677237       -1.681588466715
Sr       20.871380932498       -5.217845076589      -38.716926912731
Sr       26.089226635229      -10.435690779320      -38.716926912731
Sr       26.089226635229      -10.435690779320      -31.304226572460
Sr       20.871380932498       -5.217845076589      -31.304226572460
Sr       20.871380932498       -5.217845076589      -23.891526232190
Sr       26.089226635229      -10.435690779320      -23.891526232190
Sr       26.086388336107      -10.431946453543      -16.390865532051
Sr       20.860663269568       -5.212551676904      -16.381527471537
Sr       20.853401907356       -5.216227753265       -8.916291771831
Sr       26.086320086691      -10.431971499200       -8.936370940347
Sr       26.086845419354      -10.433259472131       -1.678093514392
Sr       20.862859147578       -5.238994881955       -1.661384582866
Sr       20.871380932498        5.217845076589      -38.716926912731
Sr       26.089226635229        0.000000000000      -38.716926912731
Sr       26.089226635229        0.000000000000      -31.304226572460
Sr       20.871380932498        5.217845076589      -31.304226572460
Sr       20.871380932498        5.217845076589      -23.891526232190
Sr       26.089226635229        0.000000000000      -23.891526232190
Sr       26.085973830478        0.000030680930      -16.388975315294
Sr       20.862931153843        5.218114943547      -16.382424837327
Sr       20.856165069505        5.214215960836       -8.917264161688
Sr       26.078117633903       -0.001371875882       -8.932418048913
Sr       26.074751497552       -0.007920063002       -1.672012667599
Sr       20.864637389251        5.194508159194       -1.659419342042
Sr       20.871380932498       15.653535855909      -38.716926912731
Sr       26.089226635229       10.435690779320      -38.716926912731
Sr       26.089226635229       10.435690779320      -31.304226572460
Sr       20.871380932498       15.653535855909      -31.304226572460
Sr       20.871380932498       15.653535855909      -23.891526232190
Sr       26.089226635229       10.435690779320      -23.891526232190
Sr       26.086447819544       10.431925790876      -16.390592717261
Sr       20.869059826201       15.652971702477      -16.388783370603
Sr       20.867032380237       15.648578694174       -8.930840594826
Sr       26.085454133088       10.430123755828       -8.937297536294
Sr       26.080696710470       10.422396544388       -1.680048037492
Sr       20.864994916010       15.642503243838       -1.679163338103
Sr       20.871380932498       26.089226635229      -38.716926912731
Sr       26.089226635229       20.871380932498      -38.716926912731
Sr       26.089226635229       20.871380932498      -31.304226572460
Sr       20.871380932498       26.089226635229      -31.304226572460
Sr       20.871380932498       26.089226635229      -23.891526232190
Sr       26.089226635229       20.871380932498      -23.891526232190
Sr       26.089777639691       20.868670992371      -16.391709309221
Sr       20.872422205703       26.088904172390      -16.392891181864
Sr       20.871695255498       26.087809051022       -8.940551826999
Sr       26.088610512058       20.866600968789       -8.938772684835
Sr       26.084540592735       20.860550564110       -1.685441975619
Sr       20.865421318327       26.081528226295       -1.684613787864
Ti      -26.089226635229      -26.089226635229      -35.010576255426
Ti      -31.307071711818      -31.307071711818      -35.010576255426
Ti      -26.092677300673      -26.088198510994      -20.118395386077
Ti      -31.307071711818      -31.307071711818      -20.119814997322
Ti      -31.307071711818      -31.307071711818      -27.597875915156
Ti      -26.089226635229      -26.089226635229      -27.597875915156
Ti      -26.087439001434      -26.082190057791       -5.006127031226
Ti      -31.307071711818      -31.307071711818       -5.009106558464
Ti      -31.307071711818      -31.307071711818      -12.599573015657
Ti      -26.091943462912      -26.087899841530      -12.599216407753
Ti      -26.089226635229      -15.653535855909      -35.010576255426
Ti      -31.307071711818      -20.871380932498      -35.010576255426
Ti      -26.089845889107      -15.651348117738      -20.117377202309
Ti       31.306344135471      -20.868406134544      -20.119297623560
Ti      -31.307071711818      -20.871380932498      -27.597875915156
Ti      -26.089226635229      -15.653535855909      -27.597875915156
Ti      -26.085627574265      -15.639827115348       -5.003889949951
Ti      -31.306356032159      -20.862578636216       -5.008413803766
Ti       31.306061119543      -20.868882002034      -12.598569446966
Ti      -26.088651211251      -15.650314984371      -12.596335288707
Ti      -26.089226635229       -5.217845076589      -35.010576255426
Ti      -31.307071711818      -10.435690779320      -35.010576255426
Ti      -26.086499163141       -5.216073722472      -20.115924463554
Ti       31.306718568049      -10.432198788541      -20.118522050086
Ti      -31.307071711818      -10.435690779320      -27.597875915156
Ti      -26.089226635229       -5.217845076589      -27.597875915156
Ti      -26.081448080191       -5.199747710715       -4.999654500342
Ti      -31.303375598932      -10.423487282767       -5.008013350628
Ti      -31.306897644499      -10.432299597312      -12.597579519015
Ti      -26.083217555884       -5.216342337147      -12.592411627429
Ti      -26.089226635229        5.217845076589      -35.010576255426
Ti      -31.307071711818        0.000000000000      -35.010576255426
Ti      -26.085985727165        5.216207716739      -20.115685750613
Ti      -31.307071711818        0.000000000000      -20.116478862180
Ti      -31.307071711818        0.000000000000      -27.597875915156
Ti      -26.089226635229        5.217845076589      -27.597875915156
Ti      -26.079452567440        5.211386427695       -4.999865931804
Ti      -31.307071711818        0.000000000000       -5.002145883974
Ti      -31.307071711818        0.000000000000      -12.592167068457
Ti      -26.083218808167        5.216160129990      -12.593585705363
Ti      -26.089226635229       15.653535855909      -35.010576255426
Ti      -31.307071711818       10.435690779320      -35.010576255426
Ti      -26.088060133737       15.650192886792      -20.117365510246
Ti      -31.306718568049       10.432198788541      -20.118522050086
Ti      -31.307071711818       10.435690779320      -27.597875915156
Ti      -26.089226635229       15.653535855909      -27.597875915156
Ti      -26.083056011394       15.642992886439       -5.003596674052
Ti       31.303375598932       10.423487282767       -5.008013350628
Ti       31.306897644499       10.432299597312      -12.597579519015
Ti      -26.087897336964       15.648673867672      -12.597266756346
Ti      -26.089226635229       26.089226635229      -35.010576255426
Ti      -31.307071711818       20.871380932498      -35.010576255426
Ti      -26.091389327743       26.088221678227      -20.118623381294
Ti      -31.306344135471       20.868406134544      -20.119297623560
Ti      -31.307071711818       20.871380932498      -27.597875915156
Ti      -26.089226635229       26.089226635229      -27.597875915156
Ti      -26.086728957048       26.086137253392       -5.006866554173
Ti       31.306356032159       20.862578636216       -5.008413803766
Ti      -31.306061119543       20.868882002034      -12.598569446966
Ti      -26.091143880300       26.089354368081      -12.599778601087
Ti      -15.653535855909      -26.089226635229      -35.010576255426
Ti      -20.871380932498      -31.307071711818      -35.010576255426
Ti      -15.657814906471      -26.091203989878      -20.117738681905
Ti      -20.875813387711      -31.305772468342      -20.119818894676
Ti      -20.871380932498      -31.307071711818      -27.597875915156
Ti      -15.653535855909      -26.089226635229      -27.597875915156
Ti      -15.648616888802      -26.081726713130       -5.010213407039
Ti      -20.868686645907      -31.304525820746       -5.012380335940
Ti      -20.874879810833      -31.306802471001      -12.600350537807
Ti      -15.654936534297      -26.086912416488      -12.601574307006
Ti      -15.653535855909      -15.653535855909      -35.010576255426
Ti      -20.871380932498      -20.871380932498      -35.010576255426
Ti      -15.654523907092      -15.656436143032      -20.113331748714
Ti      -20.873131623948      -20.870768566176      -20.118939066979
Ti      -20.871380932498      -20.871380932498      -27.597875915156
Ti      -15.653535855909      -15.653535855909      -27.597875915156
Ti      -15.638134655051      -15.627773892739       -4.993555141117
Ti      -20.862993767987      -20.860273809596       -5.009960079020
Ti      -20.874768983799      -20.871452938763      -12.597867923221
Ti      -15.649829098618      -15.653550257162      -12.588617553176
Ti      -15.653535855909       -5.217845076589      -35.010576255426
Ti      -20.871380932498      -10.435690779320      -35.010576255426
Ti      -15.653675485449       -5.219518126501      -20.102049882824
Ti      -20.867669166076      -10.436351358533      -20.118695482346
Ti      -20.871380932498      -10.435690779320      -27.597875915156
Ti      -15.653535855909       -5.217845076589      -27.597875915156
Ti      -15.602986205640       -5.184625768937       -4.912387869509
Ti      -20.855870156889      -10.414181568771       -5.005634015927
Ti      -20.866187089301      -10.434248775597      -12.594106976479
Ti      -15.647487955796       -5.218723553021      -12.555570913105
Ti      -15.653535855909        5.217845076589      -35.010576255426
Ti      -20.871380932498        0.000000000000      -35.010576255426
Ti      -15.652341178052        5.217932110249      -20.098597801397
Ti      -20.864500264277       -0.003281607257      -20.115481139521
Ti      -20.871380932498        0.000000000000      -27.597875915156
Ti      -15.653535855909        5.217845076589      -27.597875915156
Ti      -15.588364550868        5.230684732840       -4.903004989423
Ti      -20.829354945574        0.003329820147       -4.984901066254
Ti      -20.865700577407        0.002044351783      -12.583416534079
Ti      -15.645174363196        5.210868608729      -12.546753149369
Ti      -15.653535855909       15.653535855909      -35.010576255426
Ti      -20.871380932498       10.435690779320      -35.010576255426
Ti      -15.653761892967       15.651870319694      -20.115821183669
Ti      -20.867123170745       10.430174473284      -20.117525301766
Ti      -20.871380932498       10.435690779320      -27.597875915156
Ti      -15.653535855909       15.653535855909      -27.597875915156
Ti      -15.633460509245       15.644208853105       -4.996626256177
Ti      -20.858199403025       10.420844965914       -5.006409589401
Ti      -20.864087637072       10.431880708692      -12.590408387402
Ti      -15.652955422799       15.650260510067      -12.589486663149
Ti      -15.653535855909       26.089226635229      -35.010576255426
Ti      -20.871380932498       20.871380932498      -35.010576255426
Ti      -15.658580051303       26.091023035004      -20.117226179836
Ti      -20.872601908295       20.870250747209      -20.119516849730
Ti      -20.871380932498       20.871380932498      -27.597875915156
Ti      -15.653535855909       26.089226635229      -27.597875915156
Ti      -15.651501522389       26.089835244703       -5.008291037111
Ti      -20.866555260465       20.863731988738       -5.013389750661
Ti      -20.875752025851       20.869178166933      -12.599406403767
Ti      -15.656506897014       26.086311946852      -12.599726961145
Ti       -5.217845076589      -26.089226635229      -35.010576255426
Ti      -10.435690779320      -31.307071711818      -35.010576255426
Ti       -5.218129970942      -26.087454654970      -20.116229431515
Ti      -10.436638131310      -31.306917681025      -20.119246957956
Ti      -10.435690779320      -31.307071711818      -27.597875915156
Ti       -5.217845076589      -26.089226635229      -27.597875915156
Ti       -5.218748598679      -26.093895145762       -5.008222833413
Ti      -10.432192527127       31.303166467693       -5.014884385973
Ti      -10.440568421093       31.304278494880      -12.602199832345
Ti       -5.221062191278      -26.089546593502      -12.593909185756
Ti       -5.217845076589      -15.653535855909      -35.010576255426
Ti      -10.435690779320      -20.871380932498      -35.010576255426
Ti       -5.224064539455      -15.653998574429      -20.097109986455
Ti      -10.434402806390      -20.869520666297      -20.115778312774
Ti      -10.435690779320      -20.871380932498      -27.597875915156
Ti       -5.217845076589      -15.653535855909      -27.597875915156
Ti       -5.223122196597      -15.614873500769       -4.860701158937
Ti      -10.424514154719      -20.859659564849       -5.020783031460
Ti      -10.435133513443      -20.867711117552      -12.591484057144
Ti       -5.204024882853      -15.635084093983      -12.522741550527
Ti       -5.217845076589       -5.217845076589      -35.010576255426
Ti      -10.435690779320      -10.435690779320      -35.010576255426
Ti       -5.237444555764       -5.219428588276      -20.092966124668
Ti      -10.444568212574      -10.436413972676      -20.097090499684
Ti      -10.435690779320      -10.435690779320      -27.597875915156
Ti       -5.217845076589       -5.217845076589      -27.597875915156
Ti       -5.303843724157       -5.213599837665       -4.820082934116
Ti      -10.391714361828      -10.393403691417       -4.839890262181
Ti      -10.454813764863      -10.435953132581      -12.527006230292
Ti       -5.217163208567       -5.223670696493      -12.508441183858
Ti       -5.217845076589        5.217845076589      -35.010576255426
Ti      -10.435690779320        0.000000000000      -35.010576255426
Ti       -5.236599890969        5.209008342528      -20.085821300195
Ti      -10.445923808780        0.000987425042      -20.091099292036
Ti      -10.435690779320        0.000000000000      -27.597875915156
Ti       -5.217845076589        5.217845076589      -27.597875915156
Ti       -5.293838610180        5.193753658766       -4.790027513345
Ti      -10.419431138556        0.016026716151       -4.859179242146
Ti      -10.453038653897       -0.003197078163      -12.514575619271
Ti       -5.219943276535        5.225748233772      -12.498942357486
Ti       -5.217845076589       15.653535855909      -35.010576255426
Ti      -10.435690779320       10.435690779320      -35.010576255426
Ti       -5.227482645545       15.649961840602      -20.100811498547
Ti      -10.449770821751       10.432857489330      -20.095607556435
Ti      -10.435690779320       10.435690779320      -27.597875915156
Ti       -5.217845076589       15.653535855909      -27.597875915156
Ti       -5.206611473118       15.628413809285       -4.868615710852
Ti      -10.398518014652       10.412233016628       -4.822964053162
Ti      -10.448060829495       10.428343009589      -12.524676586857
Ti       -5.213567904452       15.629069379366      -12.537519343078
Ti       -5.217845076589       26.089226635229      -35.010576255426
Ti      -10.435690779320       20.871380932498      -35.010576255426
Ti       -5.219347189890       26.087117164737      -20.114724078479
Ti      -10.438505911208       20.870154947570      -20.117310947288
Ti      -10.435690779320       20.871380932498      -27.597875915156
Ti       -5.217845076589       26.089226635229      -27.597875915156
Ti       -5.206449928628       26.086506676838       -5.002615515148
Ti      -10.425467141982       20.871704021478       -5.021474811820
Ti      -10.435717077260       20.864756356124      -12.595074494643
Ti       -5.219022222486       26.084454811358      -12.591706206330
Ti        5.217845076589      -26.089226635229      -35.010576255426
Ti        0.000000000000      -31.307071711818      -35.010576255426
Ti        5.219347189890      -26.087117164737      -20.114724078479
Ti        0.000000000000      -31.307071711818      -20.115264836366
Ti        0.000000000000      -31.307071711818      -27.597875915156
Ti        5.217845076589      -26.089226635229      -27.597875915156
Ti        5.206449928628      -26.086506676838       -5.002615515148
Ti        0.000000000000      -31.307071711818       -4.995540843050
Ti        0.000000000000      -31.307071711818      -12.590213519695
Ti        5.219022222486      -26.084454811358      -12.591706206330
Ti        5.217845076589      -15.653535855909      -35.010576255426
Ti        0.000000000000      -20.871380932498      -35.010576255426
Ti        5.227482645545      -15.649961840602      -20.100811498547
Ti        0.002137020715      -20.872893690203      -20.120075145710
Ti        0.000000000000      -20.871380932498      -27.597875915156
Ti        5.217845076589      -15.653535855909      -27.597875915156
Ti        5.206611473118      -15.628413809285       -4.868615710852
Ti       -0.016116880517      -20.850938666953       -4.954337040769
Ti        0.001225358787      -20.878207752556      -12.581803029466
Ti        5.213567904452      -15.629069379366      -12.537519343078
Ti        5.217845076589       -5.217845076589      -35.010576255426
Ti        0.000000000000      -10.435690779320      -35.010576255426
Ti        5.236599890969       -5.209008342528      -20.085821300195
Ti        0.001025619669      -10.438343114435      -20.223651229270
Ti        0.000000000000      -10.435690779320      -27.597875915156
Ti        5.217845076589       -5.217845076589      -27.597875915156
Ti        5.293838610180       -5.193753658766       -4.790027513345
Ti       -0.005077380890      -10.437263020461       -5.259318642772
Ti        0.004006052896      -10.435988822643      -12.828294114912
Ti        5.219943276535       -5.225748233772      -12.498942357486
Ti        5.217845076589        5.217845076589      -35.010576255426
Ti        0.000000000000        0.000000000000      -35.010576255426
Ti        5.237444555764        5.219428588276      -20.092966124668
Ti        0.000000000000        0.000000000000      -20.219053325726
Ti        0.000000000000        0.000000000000      -27.597875915156
Ti        5.217845076589        5.217845076589      -27.597875915156
Ti        5.303843724157        5.213599837665       -4.820082934116
Ti        0.000000000000        0.000000000000       -5.238258315351
Ti        0.000000000000        0.000000000000      -12.793339719990
Ti        5.217163208567        5.223670696493      -12.508441183858
Ti        5.217845076589       15.653535855909      -35.010576255426
Ti        0.000000000000       10.435690779320      -35.010576255426
Ti        5.224064539455       15.653998574429      -20.097109986455
Ti       -0.001025619669       10.438343114435      -20.223651229270
Ti        0.000000000000       10.435690779320      -27.597875915156
Ti        5.217845076589       15.653535855909      -27.597875915156
Ti        5.223122196597       15.614873500769       -4.860701158937
Ti        0.005077380890       10.437263020461       -5.259318642772
Ti       -0.004006052896       10.435988822643      -12.828294114912
Ti        5.204024882853       15.635084093983      -12.522741550527
Ti        5.217845076589       26.089226635229      -35.010576255426
Ti        0.000000000000       20.871380932498      -35.010576255426
Ti        5.218129970942       26.087454654970      -20.116229431515
Ti       -0.002137020715       20.872893690203      -20.120075145710
Ti        0.000000000000       20.871380932498      -27.597875915156
Ti        5.217845076589       26.089226635229      -27.597875915156
Ti        5.218748598679       26.093895145762       -5.008222833413
Ti        0.016116880517       20.850938666953       -4.954337040769
Ti       -0.001225358787       20.878207752556      -12.581803029466
Ti        5.221062191278       26.089546593502      -12.593909185756
Ti       15.653535855909      -26.089226635229      -35.010576255426
Ti       10.435690779320      -31.307071711818      -35.010576255426
Ti       15.658580051303      -26.091023035004      -20.117226179836
Ti       10.436638131310       31.306917681025      -20.119246957956
Ti       10.435690779320      -31.307071711818      -27.597875915156
Ti       15.653535855909      -26.089226635229      -27.597875915156
Ti       15.651501522389      -26.089835244703       -5.008291037111
Ti       10.432192527127      -31.303166467693       -5.014884385973
Ti       10.440568421093      -31.304278494880      -12.602199832345
Ti       15.656506897014      -26.086311946852      -12.599726961145
Ti       15.653535855909      -15.653535855909      -35.010576255426
Ti       10.435690779320      -20.871380932498      -35.010576255426
Ti       15.653761892967      -15.651870319694      -20.115821183669
Ti       10.438505911208      -20.870154947570      -20.117310947288
Ti       10.435690779320      -20.871380932498      -27.597875915156
Ti       15.653535855909      -15.653535855909      -27.597875915156
Ti       15.633460509245      -15.644208853105       -4.996626256177
Ti       10.425467141982      -20.871704021478       -5.021474811820
Ti       10.435717077260      -20.864756356124      -12.595074494643
Ti       15.652955422799      -15.650260510067      -12.589486663149
Ti       15.653535855909       -5.217845076589      -35.010576255426
Ti       10.435690779320      -10.435690779320      -35.010576255426
Ti       15.652341178052       -5.217932110249      -20.098597801397
Ti       10.449770821751      -10.432857489330      -20.095607556435
Ti       10.435690779320      -10.435690779320      -27.597875915156
Ti       15.653535855909       -5.217845076589      -27.597875915156
Ti       15.588364550868       -5.230684732840       -4.903004989423
Ti       10.398518014652      -10.412233016628       -4.822964053162
Ti       10.448060829495      -10.428343009589      -12.524676586857
Ti       15.645174363196       -5.210868608729      -12.546753149369
Ti       15.653535855909        5.217845076589      -35.010576255426
Ti       10.435690779320        0.000000000000      -35.010576255426
Ti       15.653675485449        5.219518126501      -20.102049882824
Ti       10.445923808780       -0.000987425042      -20.091099292036
Ti       10.435690779320        0.000000000000      -27.597875915156
Ti       15.653535855909        5.217845076589      -27.597875915156
Ti       15.602986205640        5.184625768937       -4.912387869509
Ti       10.419431138556       -0.016026716151       -4.859179242146
Ti       10.453038653897        0.003197078163      -12.514575619271
Ti       15.647487955796        5.218723553021      -12.555570913105
Ti       15.653535855909       15.653535855909      -35.010576255426
Ti       10.435690779320       10.435690779320      -35.010576255426
Ti       15.654523907092       15.656436143032      -20.113331748714
Ti       10.444568212574       10.436413972676      -20.097090499684
Ti       10.435690779320       10.435690779320      -27.597875915156
Ti       15.653535855909       15.653535855909      -27.597875915156
Ti       15.638134655051       15.627773892739       -4.993555141117
Ti       10.391714361828       10.393403691417       -4.839890262181
Ti       10.454813764863       10.435953132581      -12.527006230292
Ti       15.649829098618       15.653550257162      -12.588617553176
Ti       15.653535855909       26.089226635229      -35.010576255426
Ti       10.435690779320       20.871380932498      -35.010576255426
Ti       15.657814906471       26.091203989878      -20.117738681905
Ti       10.434402806390       20.869520666297      -20.115778312774
Ti       10.435690779320       20.871380932498      -27.597875915156
Ti       15.653535855909       26.089226635229      -27.597875915156
Ti       15.648616888802       26.081726713130       -5.010213407039
Ti       10.424514154719       20.859659564849       -5.020783031460
Ti       10.435133513443       20.867711117552      -12.591484057144
Ti       15.654936534297       26.086912416488      -12.601574307006
Ti       26.089226635229      -26.089226635229      -35.010576255426
Ti       20.871380932498      -31.307071711818      -35.010576255426
Ti       26.091389327743      -26.088221678227      -20.118623381294
Ti       20.875813387711       31.305772468342      -20.119818894676
Ti       20.871380932498      -31.307071711818      -27.597875915156
Ti       26.089226635229      -26.089226635229      -27.597875915156
Ti       26.086728957048      -26.086137253392       -5.006866554173
Ti       20.868686645907       31.304525820746       -5.012380335940
Ti       20.874879810833       31.306802471001      -12.600350537807
Ti       26.091143880300      -26.089354368081      -12.599778601087
Ti       26.089226635229      -15.653535855909      -35.010576255426
Ti       20.871380932498      -20.871380932498      -35.010576255426
Ti       26.088060133737      -15.650192886792      -20.117365510246
Ti       20.872601908295      -20.870250747209      -20.119516849730
Ti       20.871380932498      -20.871380932498      -27.597875915156
Ti       26.089226635229      -15.653535855909      -27.597875915156
Ti       26.083056011394      -15.642992886439       -5.003596674052
Ti       20.866555260465      -20.863731988738       -5.013389750661
Ti       20.875752025851      -20.869178166933      -12.599406403767
Ti       26.087897336964      -15.648673867672      -12.597266756346
Ti       26.089226635229       -5.217845076589      -35.010576255426
Ti       20.871380932498      -10.435690779320      -35.010576255426
Ti       26.085985727165       -5.216207716739      -20.115685750613
Ti       20.867123170745      -10.430174473284      -20.117525301766
Ti       20.871380932498      -10.435690779320      -27.597875915156
Ti       26.089226635229       -5.217845076589      -27.597875915156
Ti       26.079452567440       -5.211386427695       -4.999865931804
Ti       20.858199403025      -10.420844965914       -5.006409589401
Ti       20.864087637072      -10.431880708692      -12.590408387402
Ti       26.083218808167       -5.216160129990      -12.593585705363
Ti       26.089226635229        5.217845076589      -35.010576255426
Ti       20.871380932498        0.000000000000      -35.010576255426
Ti       26.086499163141        5.216073722472      -20.115924463554
Ti       20.864500264277        0.003281607257      -20.115481139521
Ti       20.871380932498        0.000000000000      -27.597875915156
Ti       26.089226635229        5.217845076589      -27.597875915156
Ti       26.081448080191        5.199747710715       -4.999654500342
Ti       20.829354945574       -0.003329820147       -4.984901066254
Ti       20.865700577407       -0.002044351783      -12.583416534079
Ti       26.083217555884        5.216342337147      -12.592411627429
Ti       26.089226635229       15.653535855909      -35.010576255426
Ti       20.871380932498       10.435690779320      -35.010576255426
Ti       26.089845889107       15.651348117738      -20.117377202309
Ti       20.867669166076       10.436351358533      -20.118695482346
Ti       20.871380932498       10.435690779320      -27.597875915156
Ti       26.089226635229       15.653535855909      -27.597875915156
Ti       26.085627574265       15.639827115348       -5.003889949951
Ti       20.855870156889       10.414181568771       -5.005634015927
Ti       20.866187089301       10.434248775597      -12.594106976479
Ti       26.088651211251       15.650314984371      -12.596335288707
Ti       26.089226635229       26.089226635229      -35.010576255426
Ti       20.871380932498       20.871380932498      -35.010576255426
Ti       26.092677300673       26.088198510994      -20.118395386077
Ti       20.873131623948       20.870768566176      -20.118939066979
Ti       20.871380932498       20.871380932498      -27.597875915156
Ti       26.089226635229       26.089226635229      -27.597875915156
Ti       26.087439001434       26.082190057791       -5.006127031226
Ti       20.862993767987       20.860273809596       -5.009960079020
Ti       20.874768983799       20.871452938763      -12.597867923221
Ti       26.091943462912       26.087899841530      -12.599216407753
