440
440Atom: fractional -> Cartesian with DFT-FE cell-centered origin (Bohr); centroid=(17.690890,30.641567,15.512925)
W       -14.742405243469      -28.939258009663       -2.508898762256
W       -38.330278866099       11.916163170235       -2.508898762256
W       -26.536342603202       -8.511546714958       -2.508898762256
W        32.433323911779      -28.939258009663       -2.508898762256
W         8.845450006094       11.916163170235       -2.508898762256
W        20.639386552045       -8.511546714958       -2.508898762256
W         8.845459440300      -28.939258009663       -2.508898762256
W       -14.742414465385       11.916163170235       -2.508898762256
W        -2.948477919433       -8.511546714958       -2.508898762256
W       -17.690889680702      -23.832330017458       -2.508898762256
W       -41.278766133877       17.023093368633       -2.508898762256
W       -29.484827288108       -3.404618293771       -2.508898762256
W        29.484839474545      -23.832330017458       -2.508898762256
W         5.896964295115       17.023093368633       -2.508898762256
W        17.690901867139       -3.404618293771       -2.508898762256
W         5.896975003067      -23.832330017458       -2.508898762256
W       -17.690900176363       17.023093368633       -2.508898762256
W        -5.896962604339       -3.404618293771       -2.508898762256
W       -20.639374896335      -18.725402515518       -2.508898762256
W       -44.227248165148       22.130019890042       -2.508898762256
W       -32.433312999086        1.702310066133       -2.508898762256
W        26.536351074551      -18.725402515518       -2.508898762256
W         2.948476461230       22.130019890042       -2.508898762256
W        14.742412971800        1.702310066133       -2.508898762256
W         2.948488796744      -18.725402515518       -2.508898762256
W       -20.639385816577       22.130019890042       -2.508898762256
W        -8.845449306007        1.702310066133       -2.508898762256
W       -23.587857387569      -13.618475074861       -2.508898762256
W       -47.175730231800       27.236946472735       -2.508898762256
W       -35.381794959593        6.809236587542       -2.508898762256
W        23.587871201569      -13.618475074861       -2.508898762256
W        -0.000002916406       27.236946472735       -2.508898762256
W        11.793933629545        6.809236587542       -2.508898762256
W         0.000006730091      -13.618475074861       -2.508898762256
W       -23.587867387885       27.236946472735       -2.508898762256
W       -11.793930841933        6.809236587542       -2.508898762256
W        -8.845439408654      -28.939258009663       -2.508898762256
W       -32.433313314338       11.916163170235       -2.508898762256
W       -20.639376768387       -8.511546714958       -2.508898762256
W        38.330288402086      -28.939258009663       -2.508898762256
W        14.742414496401       11.916163170235       -2.508898762256
W        26.536351042352       -8.511546714958       -2.508898762256
W        14.742421878463      -28.939258009663       -2.508898762256
W        -8.845449904314       11.916163170235       -2.508898762256
W         2.948486641638       -8.511546714958       -2.508898762256
W       -11.793923845887      -23.832330017458       -2.508898762256
W       -35.381799025317       17.023093368633       -2.508898762256
W       -23.587861453293       -3.404618293771       -2.508898762256
W        35.381803964852      -23.832330017458       -2.508898762256
W        11.793928785422       17.023093368633       -2.508898762256
W        23.587866357446       -3.404618293771       -2.508898762256
W        11.793939564138      -23.832330017458       -2.508898762256
W       -11.793935615293       17.023093368633       -2.508898762256
W         0.000004079639       -3.404618293771       -2.508898762256
W       -14.742408000066      -18.725402515518       -2.508898762256
W       -38.330280490479       22.130019890042       -2.508898762256
W       -26.536346102817        1.702310066133       -2.508898762256
W        32.433319810673      -18.725402515518       -2.508898762256
W         8.845445197352       22.130019890042       -2.508898762256
W        20.639381707922        1.702310066133       -2.508898762256
W         8.845455409959      -18.725402515518       -2.508898762256
W       -14.742419203362       22.130019890042       -2.508898762256
W        -2.948482692793        1.702310066133       -2.508898762256
W       -17.690892118863      -13.618475074861       -2.508898762256
W       -41.278765175385       27.236946472735       -2.508898762256
W       -29.484829690887        6.809236587542       -2.508898762256
W        29.484835691876      -13.618475074861       -2.508898762256
W         5.896961573901       27.236946472735       -2.508898762256
W        17.690898119852        6.809236587542       -2.508898762256
W         5.896971291162      -13.618475074861       -2.508898762256
W       -17.690902826814       27.236946472735       -2.508898762256
W        -5.896966280862        6.809236587542       -2.508898762256
W        -2.948472724675      -28.939258009663       -2.508898762256
W       -26.536347691814       11.916163170235       -2.508898762256
W       -14.742410084409       -8.511546714958       -2.508898762256
W        44.227252963156      -28.939258009663       -2.508898762256
W        20.639379057471       11.916163170235       -2.508898762256
W        32.433315603423       -8.511546714958       -2.508898762256
W        20.639390614586      -28.939258009663       -2.508898762256
W        -2.948483291099       11.916163170235       -2.508898762256
W         8.845453254852       -8.511546714958       -2.508898762256
W        -5.896957161909      -23.832330017458       -2.508898762256
W       -29.484833402793       17.023093368633       -2.508898762256
W       -17.690894769315       -3.404618293771       -2.508898762256
W        41.278768525923      -23.832330017458       -2.508898762256
W        17.690893346493       17.023093368633       -2.508898762256
W        29.484830918517       -3.404618293771       -2.508898762256
W        17.690906177352      -23.832330017458       -2.508898762256
W        -5.896969002078       17.023093368633       -2.508898762256
W         5.896968569946       -3.404618293771       -2.508898762256
W        -8.845442377541      -18.725402515518       -2.508898762256
W       -32.433314867955       22.130019890042       -2.508898762256
W       -20.639379418839        1.702310066133       -2.508898762256
W        38.330284371744      -18.725402515518       -2.508898762256
W        14.742413933475       22.130019890042       -2.508898762256
W        26.536346268993        1.702310066133       -2.508898762256
W        14.742422023173      -18.725402515518       -2.508898762256
W        -8.845452590148       22.130019890042       -2.508898762256
W         2.948483920422        1.702310066133       -2.508898762256
W       -11.793925434884      -13.618475074861       -2.508898762256
W       -35.381799552860       27.236946472735       -2.508898762256
W       -23.587863006909        6.809236587542       -2.508898762256
W        35.381800252947      -13.618475074861       -2.508898762256
W        11.793926134971       27.236946472735       -2.508898762256
W        23.587862680923        6.809236587542       -2.508898762256
W        11.793937904376      -13.618475074861       -2.508898762256
W       -11.793936213599       27.236946472735       -2.508898762256
W         0.000000332352        6.809236587542       -2.508898762256
W         2.948494949993      -28.939258009663       -2.508898762256
W       -20.639378955692       11.916163170235       -2.508898762256
W        -8.845442409740       -8.511546714958       -2.508898762256
W        50.124221699279      -28.939258009663       -2.508898762256
W        26.536347793594       11.916163170235       -2.508898762256
W        38.330284339545       -8.511546714958       -2.508898762256
W        26.536359350708      -28.939258009663       -2.508898762256
W         2.948485445023       11.916163170235       -2.508898762256
W        14.742421990975       -8.511546714958       -2.508898762256
W         0.000006266945      -23.832330017458       -2.508898762256
W       -23.587868912486       17.023093368633       -2.508898762256
W       -11.793931340461       -3.404618293771       -2.508898762256
W        47.175733016230      -23.832330017458       -2.508898762256
W        23.587857836800       17.023093368633       -2.508898762256
W        35.381795408824       -3.404618293771       -2.508898762256
W        23.587870738423      -23.832330017458       -2.508898762256
W        -0.000004441007       17.023093368633       -2.508898762256
W        11.793933131017       -3.404618293771       -2.508898762256
W        -2.948475764327      -18.725402515518       -2.508898762256
W       -26.536350377648       22.130019890042       -2.508898762256
W       -14.742413867078        1.702310066133       -2.508898762256
W        44.227253107866      -18.725402515518       -2.508898762256
W        20.639378494545       22.130019890042       -2.508898762256
W        32.433315005115        1.702310066133       -2.508898762256
W        20.639386584244      -18.725402515518       -2.508898762256
W        -2.948488029077       22.130019890042       -2.508898762256
W         8.845448481493        1.702310066133       -2.508898762256
W        -5.896959883124      -13.618475074861       -2.508898762256
W       -29.484834001099       27.236946472735       -2.508898762256
W       -17.690897455148        6.809236587542       -2.508898762256
W        41.278768989069      -13.618475074861       -2.508898762256
W        17.690894871094       27.236946472735       -2.508898762256
W        29.484831417045        6.809236587542       -2.508898762256
W        17.690902465447      -13.618475074861       -2.508898762256
W        -5.896971652529       27.236946472735       -2.508898762256
W         5.896964893423        6.809236587542       -2.508898762256
S       -17.690890625277      -27.236951007687       -5.512925973829
S       -41.278764177144       13.618469559379       -5.512925973829
S       -29.484827949628       -6.809240264530       -5.512925973829
S        29.484836619353      -27.236951007687       -5.512925973829
S         5.896963067487       13.618469559379       -5.512925973829
S        17.690899578056       -6.809240264530       -5.512925973829
S         5.896972218639      -27.236951007687       -5.512925973829
S       -17.690901333228       13.618469559379       -5.512925973829
S        -5.896964822658       -6.809240264530       -5.512925973829
S       -20.639374354874      -22.130024486277       -5.512925973829
S       -44.227248083650       18.725396142072       -5.512925973829
S       -32.433310759299       -1.702313743121       -5.512925973829
S        26.536353031284      -22.130024486277       -5.512925973829
S         2.948479444035       18.725396142072       -5.512925973829
S        14.742415989987       -1.702313743121       -5.512925973829
S         2.948488630569      -22.130024486277       -5.512925973829
S       -20.639384956680       18.725396142072       -5.512925973829
S        -8.845448410728       -1.702313743121       -5.512925973829
S       -23.587860207379      -17.023096126374       -5.512925973829
S       -47.175733511574       23.832326340470       -5.512925973829
S       -35.381798310131        3.404616455277       -5.512925973829
S        23.587868381759      -17.023096126374       -5.512925973829
S        -0.000006266944       23.832326340470       -5.512925973829
S        11.793930279008        3.404616455277       -5.512925973829
S         0.000003981045      -17.023096126374       -5.512925973829
S       -23.587870667658       23.832326340470       -5.512925973829
S       -11.793934121707        3.404616455277       -5.512925973829
S       -26.536343158577      -11.916168624434       -5.512925973829
S       -50.124215542845       28.939252861879       -5.512925973829
S       -38.330280376783        8.511543037970       -5.512925973829
S        20.639384227581      -11.916168624434       -5.512925973829
S        -2.948489855013       28.939252861879       -5.512925973829
S         8.845446655556        8.511543037970       -5.512925973829
S        -2.948480173134      -11.916168624434       -5.512925973829
S       -26.536354255728       28.939252861879       -5.512925973829
S       -14.742417745158        8.511543037970       -5.512925973829
S       -11.793925073516      -27.236951007687       -5.512925973829
S       -35.381799120728       13.618469559379       -5.512925973829
S       -23.587862610158       -6.809240264530       -5.512925973829
S        35.381801109660      -27.236951007687       -5.512925973829
S        11.793927557794       13.618469559379       -5.512925973829
S        23.587864068363       -6.809240264530       -5.512925973829
S        11.793938831853      -27.236951007687       -5.512925973829
S       -11.793934720013       13.618469559379       -5.512925973829
S         0.000001790556       -6.809240264530       -5.512925973829
S       -14.742408661586      -22.130024486277       -5.512925973829
S       -38.330282744180       18.725396142072       -5.512925973829
S       -26.536345702883       -1.702313743121       -5.512925973829
S        32.433317521591      -22.130024486277       -5.512925973829
S         8.845443934342       18.725396142072       -5.512925973829
S        20.639380480294       -1.702313743121       -5.512925973829
S         8.845455243784      -22.130024486277       -5.512925973829
S       -14.742418343465       18.725396142072       -5.512925973829
S        -2.948481797513       -1.702313743121       -5.512925973829
S       -17.690893311110      -17.023096126374       -5.512925973829
S       -41.278766403014       23.832326340470       -5.512925973829
S       -29.484831413862        3.404616455277       -5.512925973829
S        29.484832872066      -17.023096126374       -5.512925973829
S         5.896958223363       23.832326340470       -5.512925973829
S        17.690894769315        3.404616455277       -5.512925973829
S         5.896970594259      -17.023096126374       -5.512925973829
S       -17.690904054444       23.832326340470       -5.512925973829
S        -5.896967508492        3.404616455277       -5.512925973829
S       -20.639377465289      -11.916168624434       -5.512925973829
S       -44.227250486429       28.939252861879       -5.512925973829
S       -32.433315037313        8.511543037970       -5.512925973829
S        26.536348717888      -11.916168624434       -5.512925973829
S         2.948474635294       28.939252861879       -5.512925973829
S        14.742411145863        8.511543037970       -5.512925973829
S         2.948486440081      -11.916168624434       -5.512925973829
S       -20.639387642513       28.939252861879       -5.512925973829
S        -8.845451131944        8.511543037970       -5.512925973829
S        -5.896958955647      -27.236951007687       -5.512925973829
S       -29.484832507513       13.618469559379       -5.512925973829
S       -17.690895996944       -6.809240264530       -5.512925973829
S        41.278769845783      -27.236951007687       -5.512925973829
S        17.690896293916       13.618469559379       -5.512925973829
S        29.484832804486       -6.809240264530       -5.512925973829
S        17.690903322160      -27.236951007687       -5.512925973829
S        -5.896970229706       13.618469559379       -5.512925973829
S         5.896966280863       -6.809240264530       -5.512925973829
S        -8.845442543716      -22.130024486277       -5.512925973829
S       -32.433317192419       18.725396142072       -5.512925973829
S       -20.639379585013       -1.702313743121       -5.512925973829
S        38.330286257713      -22.130024486277       -5.512925973829
S        14.742408495412       18.725396142072       -5.512925973829
S        26.536349216416       -1.702313743121       -5.512925973829
S        14.742419734091      -22.130024486277       -5.512925973829
S        -8.845453853158       18.725396142072       -5.512925973829
S         2.948482692794       -1.702313743121       -5.512925973829
S       -11.793927193241      -17.023096126374       -5.512925973829
S       -35.381800780490       23.832326340470       -5.512925973829
S       -23.587865295992        3.404616455277       -5.512925973829
S        35.381801608189      -17.023096126374       -5.512925973829
S        11.793926959486       23.832326340470       -5.512925973829
S        23.587863505437        3.404616455277       -5.512925973829
S        11.793935084566      -17.023096126374       -5.512925973829
S       -11.793939564137       23.832326340470       -5.512925973829
S        -0.000003018185        3.404616455277       -5.512925973829
S       -14.742411347419      -11.916168624434       -5.512925973829
S       -38.330285430013       28.939252861879       -5.512925973829
S       -26.536348919444        8.511543037970       -5.512925973829
S        32.433317454010      -11.916168624434       -5.512925973829
S         8.845443371416       28.939252861879       -5.512925973829
S        20.639379881986        8.511543037970       -5.512925973829
S         8.845450930388      -11.916168624434       -5.512925973829
S       -14.742423152206       28.939252861879       -5.512925973829
S        -2.948486641637        8.511543037970       -5.512925973829
S         0.000005534660      -27.236951007687       -5.512925973829
S       -23.587868017206       13.618469559379       -5.512925973829
S       -11.793931506637       -6.809240264530       -5.512925973829
S        47.175734406853      -27.236951007687       -5.512925973829
S        23.587860854987       13.618469559379       -5.512925973829
S        35.381797365556       -6.809240264530       -5.512925973829
S        23.587867883231      -27.236951007687       -5.512925973829
S        -0.000005668636       13.618469559379       -5.512925973829
S        11.793930841934       -6.809240264530       -5.512925973829
S        -2.948475930502      -22.130024486277       -5.512925973829
S       -26.536349517750       18.725396142072       -5.512925973829
S       -14.742412971799       -1.702313743121       -5.512925973829
S        44.227255064599      -22.130024486277       -5.512925973829
S        20.639377231535       18.725396142072       -5.512925973829
S        32.433313777487       -1.702313743121       -5.512925973829
S        20.639388470213      -22.130024486277       -5.512925973829
S        -2.948485117036       18.725396142072       -5.512925973829
S         8.845451428916       -1.702313743121       -5.512925973829
S        -5.896960580026      -17.023096126374       -5.512925973829
S       -29.484833105821       23.832326340470       -5.512925973829
S       -17.690898682777        3.404616455277       -5.512925973829
S        41.278766169259      -17.023096126374       -5.512925973829
S        17.690891520556       23.832326340470       -5.512925973829
S        29.484828066508        3.404616455277       -5.512925973829
S        17.690903820689      -17.023096126374       -5.512925973829
S        -5.896970828014       23.832326340470       -5.512925973829
S         5.896965717937        3.404616455277       -5.512925973829
S        -8.845444734205      -11.916168624434       -5.512925973829
S       -32.433318816799       28.939252861879       -5.512925973829
S       -20.639382306229        8.511543037970       -5.512925973829
S        38.330282015081      -11.916168624434       -5.512925973829
S        14.742407932487       28.939252861879       -5.512925973829
S        26.536344443056        8.511543037970       -5.512925973829
S        14.742419666510      -11.916168624434       -5.512925973829
S        -8.845454416084       28.939252861879       -5.512925973829
S         2.948482094486        8.511543037970       -5.512925973829
S       -17.690890625277      -27.236951007687        0.495129349066
S       -41.278764177144       13.618469559379        0.495129349066
S       -29.484827949628       -6.809240264530        0.495129349066
S        29.484836619353      -27.236951007687        0.495129349066
S         5.896963067487       13.618469559379        0.495129349066
S        17.690899578056       -6.809240264530        0.495129349066
S         5.896972218639      -27.236951007687        0.495129349066
S       -17.690901333228       13.618469559379        0.495129349066
S        -5.896964822658       -6.809240264530        0.495129349066
S       -20.639374354874      -22.130024486277        0.495129349066
S       -44.227248083650       18.725396142072        0.495129349066
S       -32.433310759299       -1.702313743121        0.495129349066
S        26.536353031284      -22.130024486277        0.495129349066
S         2.948479444035       18.725396142072        0.495129349066
S        14.742415989987       -1.702313743121        0.495129349066
S         2.948488630569      -22.130024486277        0.495129349066
S       -20.639384956680       18.725396142072        0.495129349066
S        -8.845448410728       -1.702313743121        0.495129349066
S       -23.587860207379      -17.023096126374        0.495129349066
S       -47.175733511574       23.832326340470        0.495129349066
S       -35.381798310131        3.404616455277        0.495129349066
S        23.587868381759      -17.023096126374        0.495129349066
S        -0.000006266944       23.832326340470        0.495129349066
S        11.793930279008        3.404616455277        0.495129349066
S         0.000003981045      -17.023096126374        0.495129349066
S       -23.587870667658       23.832326340470        0.495129349066
S       -11.793934121707        3.404616455277        0.495129349066
S       -26.536343158577      -11.916168624434        0.495129349066
S       -50.124215542845       28.939252861879        0.495129349066
S       -38.330280376783        8.511543037970        0.495129349066
S        20.639384227581      -11.916168624434        0.495129349066
S        -2.948489855013       28.939252861879        0.495129349066
S         8.845446655556        8.511543037970        0.495129349066
S        -2.948480173134      -11.916168624434        0.495129349066
S       -26.536354255728       28.939252861879        0.495129349066
S       -14.742417745158        8.511543037970        0.495129349066
S       -11.793925073516      -27.236951007687        0.495129349066
S       -35.381799120728       13.618469559379        0.495129349066
S       -23.587862610158       -6.809240264530        0.495129349066
S        35.381801109660      -27.236951007687        0.495129349066
S        11.793927557794       13.618469559379        0.495129349066
S        23.587864068363       -6.809240264530        0.495129349066
S        11.793938831853      -27.236951007687        0.495129349066
S       -11.793934720013       13.618469559379        0.495129349066
S         0.000001790556       -6.809240264530        0.495129349066
S       -14.742408661586      -22.130024486277        0.495129349066
S       -38.330282744180       18.725396142072        0.495129349066
S       -26.536345702883       -1.702313743121        0.495129349066
S        32.433317521591      -22.130024486277        0.495129349066
S         8.845443934342       18.725396142072        0.495129349066
S        20.639380480294       -1.702313743121        0.495129349066
S         8.845455243784      -22.130024486277        0.495129349066
S       -14.742418343465       18.725396142072        0.495129349066
S        -2.948481797513       -1.702313743121        0.495129349066
S       -17.690893311110      -17.023096126374        0.495129349066
S       -41.278766403014       23.832326340470        0.495129349066
S       -29.484831413862        3.404616455277        0.495129349066
S        29.484832872066      -17.023096126374        0.495129349066
S         5.896958223363       23.832326340470        0.495129349066
S        17.690894769315        3.404616455277        0.495129349066
S         5.896970594259      -17.023096126374        0.495129349066
S       -17.690904054444       23.832326340470        0.495129349066
S        -5.896967508492        3.404616455277        0.495129349066
S       -20.639377465289      -11.916168624434        0.495129349066
S       -44.227250486429       28.939252861879        0.495129349066
S       -32.433315037313        8.511543037970        0.495129349066
S        26.536348717888      -11.916168624434        0.495129349066
S         2.948474635294       28.939252861879        0.495129349066
S        14.742411145863        8.511543037970        0.495129349066
S         2.948486440081      -11.916168624434        0.495129349066
S       -20.639387642513       28.939252861879        0.495129349066
S        -8.845451131944        8.511543037970        0.495129349066
S        -5.896958955647      -27.236951007687        0.495129349066
S       -29.484832507513       13.618469559379        0.495129349066
S       -17.690895996944       -6.809240264530        0.495129349066
S        41.278769845783      -27.236951007687        0.495129349066
S        17.690896293916       13.618469559379        0.495129349066
S        29.484832804486       -6.809240264530        0.495129349066
S        17.690903322160      -27.236951007687        0.495129349066
S        -5.896970229706       13.618469559379        0.495129349066
S         5.896966280863       -6.809240264530        0.495129349066
S        -8.845442543716      -22.130024486277        0.495129349066
S       -32.433317192419       18.725396142072        0.495129349066
S       -20.639379585013       -1.702313743121        0.495129349066
S        38.330286257713      -22.130024486277        0.495129349066
S        14.742408495412       18.725396142072        0.495129349066
S        26.536349216416       -1.702313743121        0.495129349066
S        14.742419734091      -22.130024486277        0.495129349066
S        -8.845453853158       18.725396142072        0.495129349066
S         2.948482692794       -1.702313743121        0.495129349066
S       -11.793927193241      -17.023096126374        0.495129349066
S       -35.381800780490       23.832326340470        0.495129349066
S       -23.587865295992        3.404616455277        0.495129349066
S        35.381801608189      -17.023096126374        0.495129349066
S        11.793926959486       23.832326340470        0.495129349066
S        23.587863505437        3.404616455277        0.495129349066
S        11.793935084566      -17.023096126374        0.495129349066
S       -11.793939564137       23.832326340470        0.495129349066
S        -0.000003018185        3.404616455277        0.495129349066
S       -14.742411347419      -11.916168624434        0.495129349066
S       -38.330285430013       28.939252861879        0.495129349066
S       -26.536348919444        8.511543037970        0.495129349066
S        32.433317454010      -11.916168624434        0.495129349066
S         8.845443371416       28.939252861879        0.495129349066
S        20.639379881986        8.511543037970        0.495129349066
S         8.845450930388      -11.916168624434        0.495129349066
S       -14.742423152206       28.939252861879        0.495129349066
S        -2.948486641637        8.511543037970        0.495129349066
S         0.000005534660      -27.236951007687        0.495129349066
S       -23.587868017206       13.618469559379        0.495129349066
S       -11.793931506637       -6.809240264530        0.495129349066
S        47.175734406853      -27.236951007687        0.495129349066
S        23.587860854987       13.618469559379        0.495129349066
S        35.381797365556       -6.809240264530        0.495129349066
S        23.587867883231      -27.236951007687        0.495129349066
S        -0.000005668636       13.618469559379        0.495129349066
S        11.793930841934       -6.809240264530        0.495129349066
S        -2.948475930502      -22.130024486277        0.495129349066
S       -26.536349517750       18.725396142072        0.495129349066
S       -14.742412971799       -1.702313743121        0.495129349066
S        44.227255064599      -22.130024486277        0.495129349066
S        20.639377231535       18.725396142072        0.495129349066
S        32.433313777487       -1.702313743121        0.495129349066
S        20.639388470213      -22.130024486277        0.495129349066
S        -2.948485117036       18.725396142072        0.495129349066
S         8.845451428916       -1.702313743121        0.495129349066
S        -5.896960580026      -17.023096126374        0.495129349066
S       -29.484833105821       23.832326340470        0.495129349066
S       -17.690898682777        3.404616455277        0.495129349066
S        41.278766169259      -17.023096126374        0.495129349066
S        17.690891520556       23.832326340470        0.495129349066
S        29.484828066508        3.404616455277        0.495129349066
S        17.690903820689      -17.023096126374        0.495129349066
S        -5.896970828014       23.832326340470        0.495129349066
S         5.896965717937        3.404616455277        0.495129349066
S        -8.845444734205      -11.916168624434        0.495129349066
S       -32.433318816799       28.939252861879        0.495129349066
S       -20.639382306229        8.511543037970        0.495129349066
S        38.330282015081      -11.916168624434        0.495129349066
S        14.742407932487       28.939252861879        0.495129349066
S        26.536344443056        8.511543037970        0.495129349066
S        14.742419666510      -11.916168624434        0.495129349066
S        -8.845454416084       28.939252861879        0.495129349066
S         2.948482094486        8.511543037970        0.495129349066
Te        2.798304823672      -11.065011783515        5.512925043053
Te       12.246936270425      -11.065011783515        5.512925043053
Te      -11.374641320386      -11.065011783515        5.512925043053
Te       -6.650326693845      -11.065011783515        5.512925043053
Te       -1.926009873633      -11.065011783515        5.512925043053
Te        7.522619450213      -11.065011783515        5.512925043053
Te       16.971248844822      -11.065011783515        5.512925043053
Te      -16.098957079144      -11.065011783515        5.512925043053
