309
Pt309: Cartesian coordinates from coordinates.inp in Bohr
Pt      -14.891041860000      -11.168281400000       -3.722760466000
Pt      -11.168281400000      -14.891041860000       -3.722760466000
Pt      -11.168281400000      -11.168281400000       -7.445520931000
Pt      -14.891041860000      -14.891041860000        0.000000000000
Pt      -14.891041860000      -11.168281400000        3.722760466000
Pt      -11.168281400000      -14.891041860000        3.722760466000
Pt      -11.168281400000      -11.168281400000        0.000000000000
Pt      -11.168281400000      -11.168281400000        7.445520931000
Pt      -14.891041860000       -3.722760466000      -11.168281400000
Pt      -11.168281400000       -7.445520931000      -11.168281400000
Pt      -11.168281400000       -3.722760466000      -14.891041860000
Pt      -14.891041860000       -7.445520931000       -7.445520931000
Pt      -14.891041860000       -3.722760466000       -3.722760466000
Pt      -11.168281400000       -7.445520931000       -3.722760466000
Pt      -11.168281400000       -3.722760466000       -7.445520931000
Pt      -14.891041860000       -7.445520931000        0.000000000000
Pt      -14.891041860000       -3.722760466000        3.722760466000
Pt      -11.168281400000       -7.445520931000        3.722760466000
Pt      -11.168281400000       -3.722760466000        0.000000000000
Pt      -14.891041860000       -7.445520931000        7.445520931000
Pt      -14.891041860000       -3.722760466000       11.168281400000
Pt      -11.168281400000       -7.445520931000       11.168281400000
Pt      -11.168281400000       -3.722760466000        7.445520931000
Pt      -11.168281400000       -3.722760466000       14.891041860000
Pt      -14.891041860000        0.000000000000      -14.891041860000
Pt      -14.891041860000        3.722760466000      -11.168281400000
Pt      -11.168281400000        0.000000000000      -11.168281400000
Pt      -11.168281400000        3.722760466000      -14.891041860000
Pt      -14.891041860000        0.000000000000       -7.445520931000
Pt      -14.891041860000        3.722760466000       -3.722760466000
Pt      -11.168281400000        0.000000000000       -3.722760466000
Pt      -11.168281400000        3.722760466000       -7.445520931000
Pt      -14.891041860000        0.000000000000        0.000000000000
Pt      -14.891041860000        3.722760466000        3.722760466000
Pt      -11.168281400000        0.000000000000        3.722760466000
Pt      -11.168281400000        3.722760466000        0.000000000000
Pt      -14.891041860000        0.000000000000        7.445520931000
Pt      -14.891041860000        3.722760466000       11.168281400000
Pt      -11.168281400000        0.000000000000       11.168281400000
Pt      -11.168281400000        3.722760466000        7.445520931000
Pt      -14.891041860000        0.000000000000       14.891041860000
Pt      -11.168281400000        3.722760466000       14.891041860000
Pt      -11.168281400000        7.445520931000      -11.168281400000
Pt      -14.891041860000        7.445520931000       -7.445520931000
Pt      -14.891041860000       11.168281400000       -3.722760466000
Pt      -11.168281400000        7.445520931000       -3.722760466000
Pt      -11.168281400000       11.168281400000       -7.445520931000
Pt      -14.891041860000        7.445520931000        0.000000000000
Pt      -14.891041860000       11.168281400000        3.722760466000
Pt      -11.168281400000        7.445520931000        3.722760466000
Pt      -11.168281400000       11.168281400000        0.000000000000
Pt      -14.891041860000        7.445520931000        7.445520931000
Pt      -11.168281400000        7.445520931000       11.168281400000
Pt      -11.168281400000       11.168281400000        7.445520931000
Pt      -11.168281400000       14.891041860000       -3.722760466000
Pt      -14.891041860000       14.891041860000        0.000000000000
Pt      -11.168281400000       14.891041860000        3.722760466000
Pt       -7.445520931000      -11.168281400000      -11.168281400000
Pt       -3.722760466000      -14.891041860000      -11.168281400000
Pt       -3.722760466000      -11.168281400000      -14.891041860000
Pt       -7.445520931000      -14.891041860000       -7.445520931000
Pt       -7.445520931000      -11.168281400000       -3.722760466000
Pt       -3.722760466000      -14.891041860000       -3.722760466000
Pt       -3.722760466000      -11.168281400000       -7.445520931000
Pt       -7.445520931000      -14.891041860000        0.000000000000
Pt       -7.445520931000      -11.168281400000        3.722760466000
Pt       -3.722760466000      -14.891041860000        3.722760466000
Pt       -3.722760466000      -11.168281400000        0.000000000000
Pt       -7.445520931000      -14.891041860000        7.445520931000
Pt       -7.445520931000      -11.168281400000       11.168281400000
Pt       -3.722760466000      -14.891041860000       11.168281400000
Pt       -3.722760466000      -11.168281400000        7.445520931000
Pt       -3.722760466000      -11.168281400000       14.891041860000
Pt       -7.445520931000       -7.445520931000      -14.891041860000
Pt       -7.445520931000       -3.722760466000      -11.168281400000
Pt       -3.722760466000       -7.445520931000      -11.168281400000
Pt       -3.722760466000       -3.722760466000      -14.891041860000
Pt       -7.445520931000       -7.445520931000       -7.445520931000
Pt       -7.445520931000       -3.722760466000       -3.722760466000
Pt       -3.722760466000       -7.445520931000       -3.722760466000
Pt       -3.722760466000       -3.722760466000       -7.445520931000
Pt       -7.445520931000       -7.445520931000        0.000000000000
Pt       -7.445520931000       -3.722760466000        3.722760466000
Pt       -3.722760466000       -7.445520931000        3.722760466000
Pt       -3.722760466000       -3.722760466000        0.000000000000
Pt       -7.445520931000       -7.445520931000        7.445520931000
Pt       -7.445520931000       -3.722760466000       11.168281400000
Pt       -3.722760466000       -7.445520931000       11.168281400000
Pt       -3.722760466000       -3.722760466000        7.445520931000
Pt       -7.445520931000       -7.445520931000       14.891041860000
Pt       -3.722760466000       -3.722760466000       14.891041860000
Pt       -7.445520931000        0.000000000000      -14.891041860000
Pt       -7.445520931000        3.722760466000      -11.168281400000
Pt       -3.722760466000        0.000000000000      -11.168281400000
Pt       -3.722760466000        3.722760466000      -14.891041860000
Pt       -7.445520931000        0.000000000000       -7.445520931000
Pt       -7.445520931000        3.722760466000       -3.722760466000
Pt       -3.722760466000        0.000000000000       -3.722760466000
Pt       -3.722760466000        3.722760466000       -7.445520931000
Pt       -7.445520931000        0.000000000000        0.000000000000
Pt       -7.445520931000        3.722760466000        3.722760466000
Pt       -3.722760466000        0.000000000000        3.722760466000
Pt       -3.722760466000        3.722760466000        0.000000000000
Pt       -7.445520931000        0.000000000000        7.445520931000
Pt       -7.445520931000        3.722760466000       11.168281400000
Pt       -3.722760466000        0.000000000000       11.168281400000
Pt       -3.722760466000        3.722760466000        7.445520931000
Pt       -7.445520931000        0.000000000000       14.891041860000
Pt       -3.722760466000        3.722760466000       14.891041860000
Pt       -7.445520931000        7.445520931000      -14.891041860000
Pt       -7.445520931000       11.168281400000      -11.168281400000
Pt       -3.722760466000        7.445520931000      -11.168281400000
Pt       -3.722760466000       11.168281400000      -14.891041860000
Pt       -7.445520931000        7.445520931000       -7.445520931000
Pt       -7.445520931000       11.168281400000       -3.722760466000
Pt       -3.722760466000        7.445520931000       -3.722760466000
Pt       -3.722760466000       11.168281400000       -7.445520931000
Pt       -7.445520931000        7.445520931000        0.000000000000
Pt       -7.445520931000       11.168281400000        3.722760466000
Pt       -3.722760466000        7.445520931000        3.722760466000
Pt       -3.722760466000       11.168281400000        0.000000000000
Pt       -7.445520931000        7.445520931000        7.445520931000
Pt       -7.445520931000       11.168281400000       11.168281400000
Pt       -3.722760466000        7.445520931000       11.168281400000
Pt       -3.722760466000       11.168281400000        7.445520931000
Pt       -7.445520931000        7.445520931000       14.891041860000
Pt       -3.722760466000       11.168281400000       14.891041860000
Pt       -3.722760466000       14.891041860000      -11.168281400000
Pt       -7.445520931000       14.891041860000       -7.445520931000
Pt       -3.722760466000       14.891041860000       -3.722760466000
Pt       -7.445520931000       14.891041860000        0.000000000000
Pt       -3.722760466000       14.891041860000        3.722760466000
Pt       -7.445520931000       14.891041860000        7.445520931000
Pt       -3.722760466000       14.891041860000       11.168281400000
Pt        0.000000000000      -14.891041860000      -14.891041860000
Pt        0.000000000000      -11.168281400000      -11.168281400000
Pt        3.722760466000      -14.891041860000      -11.168281400000
Pt        3.722760466000      -11.168281400000      -14.891041860000
Pt        0.000000000000      -14.891041860000       -7.445520931000
Pt        0.000000000000      -11.168281400000       -3.722760466000
Pt        3.722760466000      -14.891041860000       -3.722760466000
Pt        3.722760466000      -11.168281400000       -7.445520931000
Pt        0.000000000000      -14.891041860000        0.000000000000
Pt        0.000000000000      -11.168281400000        3.722760466000
Pt        3.722760466000      -14.891041860000        3.722760466000
Pt        3.722760466000      -11.168281400000        0.000000000000
Pt        0.000000000000      -14.891041860000        7.445520931000
Pt        0.000000000000      -11.168281400000       11.168281400000
Pt        3.722760466000      -14.891041860000       11.168281400000
Pt        3.722760466000      -11.168281400000        7.445520931000
Pt        0.000000000000      -14.891041860000       14.891041860000
Pt        3.722760466000      -11.168281400000       14.891041860000
Pt        0.000000000000       -7.445520931000      -14.891041860000
Pt        0.000000000000       -3.722760466000      -11.168281400000
Pt        3.722760466000       -7.445520931000      -11.168281400000
Pt        3.722760466000       -3.722760466000      -14.891041860000
Pt        0.000000000000       -7.445520931000       -7.445520931000
Pt        0.000000000000       -3.722760466000       -3.722760466000
Pt        3.722760466000       -7.445520931000       -3.722760466000
Pt        3.722760466000       -3.722760466000       -7.445520931000
Pt        0.000000000000       -7.445520931000        0.000000000000
Pt        0.000000000000       -3.722760466000        3.722760466000
Pt        3.722760466000       -7.445520931000        3.722760466000
Pt        3.722760466000       -3.722760466000        0.000000000000
Pt        0.000000000000       -7.445520931000        7.445520931000
Pt        0.000000000000       -3.722760466000       11.168281400000
Pt        3.722760466000       -7.445520931000       11.168281400000
Pt        3.722760466000       -3.722760466000        7.445520931000
Pt        0.000000000000       -7.445520931000       14.891041860000
Pt        3.722760466000       -3.722760466000       14.891041860000
Pt        0.000000000000        0.000000000000      -14.891041860000
Pt        0.000000000000        3.722760466000      -11.168281400000
Pt        3.722760466000        0.000000000000      -11.168281400000
Pt        3.722760466000        3.722760466000      -14.891041860000
Pt        0.000000000000        0.000000000000       -7.445520931000
Pt        0.000000000000        3.722760466000       -3.722760466000
Pt        3.722760466000        0.000000000000       -3.722760466000
Pt        3.722760466000        3.722760466000       -7.445520931000
Pt        0.000000000000        0.000000000000        0.000000000000
Pt        0.000000000000        3.722760466000        3.722760466000
Pt        3.722760466000        0.000000000000        3.722760466000
Pt        3.722760466000        3.722760466000        0.000000000000
Pt        0.000000000000        0.000000000000        7.445520931000
Pt        0.000000000000        3.722760466000       11.168281400000
Pt        3.722760466000        0.000000000000       11.168281400000
Pt        3.722760466000        3.722760466000        7.445520931000
Pt        0.000000000000        0.000000000000       14.891041860000
Pt        3.722760466000        3.722760466000       14.891041860000
Pt        0.000000000000        7.445520931000      -14.891041860000
Pt        0.000000000000       11.168281400000      -11.168281400000
Pt        3.722760466000        7.445520931000      -11.168281400000
Pt        3.722760466000       11.168281400000      -14.891041860000
Pt        0.000000000000        7.445520931000       -7.445520931000
Pt        0.000000000000       11.168281400000       -3.722760466000
Pt        3.722760466000        7.445520931000       -3.722760466000
Pt        3.722760466000       11.168281400000       -7.445520931000
Pt        0.000000000000        7.445520931000        0.000000000000
Pt        0.000000000000       11.168281400000        3.722760466000
Pt        3.722760466000        7.445520931000        3.722760466000
Pt        3.722760466000       11.168281400000        0.000000000000
Pt        0.000000000000        7.445520931000        7.445520931000
Pt        0.000000000000       11.168281400000       11.168281400000
Pt        3.722760466000        7.445520931000       11.168281400000
Pt        3.722760466000       11.168281400000        7.445520931000
Pt        0.000000000000        7.445520931000       14.891041860000
Pt        3.722760466000       11.168281400000       14.891041860000
Pt        0.000000000000       14.891041860000      -14.891041860000
Pt        3.722760466000       14.891041860000      -11.168281400000
Pt        0.000000000000       14.891041860000       -7.445520931000
Pt        3.722760466000       14.891041860000       -3.722760466000
Pt        0.000000000000       14.891041860000        0.000000000000
Pt        3.722760466000       14.891041860000        3.722760466000
Pt        0.000000000000       14.891041860000        7.445520931000
Pt        3.722760466000       14.891041860000       11.168281400000
Pt        0.000000000000       14.891041860000       14.891041860000
Pt        7.445520931000      -11.168281400000      -11.168281400000
Pt        7.445520931000      -14.891041860000       -7.445520931000
Pt        7.445520931000      -11.168281400000       -3.722760466000
Pt       11.168281400000      -14.891041860000       -3.722760466000
Pt       11.168281400000      -11.168281400000       -7.445520931000
Pt        7.445520931000      -14.891041860000        0.000000000000
Pt        7.445520931000      -11.168281400000        3.722760466000
Pt       11.168281400000      -14.891041860000        3.722760466000
Pt       11.168281400000      -11.168281400000        0.000000000000
Pt        7.445520931000      -14.891041860000        7.445520931000
Pt        7.445520931000      -11.168281400000       11.168281400000
Pt       11.168281400000      -11.168281400000        7.445520931000
Pt        7.445520931000       -7.445520931000      -14.891041860000
Pt        7.445520931000       -3.722760466000      -11.168281400000
Pt       11.168281400000       -7.445520931000      -11.168281400000
Pt       11.168281400000       -3.722760466000      -14.891041860000
Pt        7.445520931000       -7.445520931000       -7.445520931000
Pt        7.445520931000       -3.722760466000       -3.722760466000
Pt       11.168281400000       -7.445520931000       -3.722760466000
Pt       11.168281400000       -3.722760466000       -7.445520931000
Pt        7.445520931000       -7.445520931000        0.000000000000
Pt        7.445520931000       -3.722760466000        3.722760466000
Pt       11.168281400000       -7.445520931000        3.722760466000
Pt       11.168281400000       -3.722760466000        0.000000000000
Pt        7.445520931000       -7.445520931000        7.445520931000
Pt        7.445520931000       -3.722760466000       11.168281400000
Pt       11.168281400000       -7.445520931000       11.168281400000
Pt       11.168281400000       -3.722760466000        7.445520931000
Pt        7.445520931000       -7.445520931000       14.891041860000
Pt       11.168281400000       -3.722760466000       14.891041860000
Pt        7.445520931000        0.000000000000      -14.891041860000
Pt        7.445520931000        3.722760466000      -11.168281400000
Pt       11.168281400000        0.000000000000      -11.168281400000
Pt       11.168281400000        3.722760466000      -14.891041860000
Pt        7.445520931000        0.000000000000       -7.445520931000
Pt        7.445520931000        3.722760466000       -3.722760466000
Pt       11.168281400000        0.000000000000       -3.722760466000
Pt       11.168281400000        3.722760466000       -7.445520931000
Pt        7.445520931000        0.000000000000        0.000000000000
Pt        7.445520931000        3.722760466000        3.722760466000
Pt       11.168281400000        0.000000000000        3.722760466000
Pt       11.168281400000        3.722760466000        0.000000000000
Pt        7.445520931000        0.000000000000        7.445520931000
Pt        7.445520931000        3.722760466000       11.168281400000
Pt       11.168281400000        0.000000000000       11.168281400000
Pt       11.168281400000        3.722760466000        7.445520931000
Pt        7.445520931000        0.000000000000       14.891041860000
Pt       11.168281400000        3.722760466000       14.891041860000
Pt        7.445520931000        7.445520931000      -14.891041860000
Pt        7.445520931000       11.168281400000      -11.168281400000
Pt       11.168281400000        7.445520931000      -11.168281400000
Pt        7.445520931000        7.445520931000       -7.445520931000
Pt        7.445520931000       11.168281400000       -3.722760466000
Pt       11.168281400000        7.445520931000       -3.722760466000
Pt       11.168281400000       11.168281400000       -7.445520931000
Pt        7.445520931000        7.445520931000        0.000000000000
Pt        7.445520931000       11.168281400000        3.722760466000
Pt       11.168281400000        7.445520931000        3.722760466000
Pt       11.168281400000       11.168281400000        0.000000000000
Pt        7.445520931000        7.445520931000        7.445520931000
Pt        7.445520931000       11.168281400000       11.168281400000
Pt       11.168281400000        7.445520931000       11.168281400000
Pt       11.168281400000       11.168281400000        7.445520931000
Pt        7.445520931000        7.445520931000       14.891041860000
Pt        7.445520931000       14.891041860000       -7.445520931000
Pt       11.168281400000       14.891041860000       -3.722760466000
Pt        7.445520931000       14.891041860000        0.000000000000
Pt       11.168281400000       14.891041860000        3.722760466000
Pt        7.445520931000       14.891041860000        7.445520931000
Pt       14.891041860000      -11.168281400000       -3.722760466000
Pt       14.891041860000      -14.891041860000        0.000000000000
Pt       14.891041860000      -11.168281400000        3.722760466000
Pt       14.891041860000       -3.722760466000      -11.168281400000
Pt       14.891041860000       -7.445520931000       -7.445520931000
Pt       14.891041860000       -3.722760466000       -3.722760466000
Pt       14.891041860000       -7.445520931000        0.000000000000
Pt       14.891041860000       -3.722760466000        3.722760466000
Pt       14.891041860000       -7.445520931000        7.445520931000
Pt       14.891041860000       -3.722760466000       11.168281400000
Pt       14.891041860000        0.000000000000      -14.891041860000
Pt       14.891041860000        3.722760466000      -11.168281400000
Pt       14.891041860000        0.000000000000       -7.445520931000
Pt       14.891041860000        3.722760466000       -3.722760466000
Pt       14.891041860000        0.000000000000        0.000000000000
Pt       14.891041860000        3.722760466000        3.722760466000
Pt       14.891041860000        0.000000000000        7.445520931000
Pt       14.891041860000        3.722760466000       11.168281400000
Pt       14.891041860000        0.000000000000       14.891041860000
Pt       14.891041860000        7.445520931000       -7.445520931000
Pt       14.891041860000       11.168281400000       -3.722760466000
Pt       14.891041860000        7.445520931000        0.000000000000
Pt       14.891041860000       11.168281400000        3.722760466000
Pt       14.891041860000        7.445520931000        7.445520931000
Pt       14.891041860000       14.891041860000        0.000000000000
