11544
LargeSystem: fractional -> Cartesian with DFT-FE cell-centered origin (Bohr); centroid=(84.682806,212.558482,20.050361)
Te       78.410005407898     -205.426984669590       -6.273480438735
Te      -81.546405605799     -201.292090037010       -5.886120408151
Te      -78.410005369667     -205.426984669590       -6.273480438735
Te      -75.273605246457     -201.292090037010       -5.886120408151
Te      -78.410005363411     -193.937336981079       -6.273480438735
Te      -75.273605240201     -189.802442348500       -5.886120408151
Te      -78.410005357155     -182.447689292569       -6.273480438735
Te      -75.273605233945     -178.312794659990       -5.886120408151
Te      -78.410005513991     -170.958041604059       -6.273480438735
Te      -75.273605227689     -166.823146971479       -5.886120408151
Te      -78.410005507735     -159.468393915548       -6.273480438735
Te      -75.273605221433     -155.333499282969       -5.886120408151
Te      -78.410005495206     -147.978745801921       -6.273480438735
Te      -75.273605215176     -143.843851594459       -5.886120408151
Te      -78.410005488950     -136.489098113411       -6.273480438735
Te      -75.273605208920     -132.354203905948       -5.886120408151
Te      -78.410005482694     -124.999450424900       -6.273480438735
Te      -75.273605202664     -120.864556217438       -5.886120408151
Te      -78.410005476438     -113.509802736390       -6.273480438735
Te      -75.273605196408     -109.374908528928       -5.886120408151
Te      -78.410005470181     -102.020155047880       -6.273480438735
Te      -75.273605190152      -97.885260840417       -5.886120408151
Te      -78.410005463925      -90.530507359369       -6.273480438735
Te      -75.273605183896      -86.395613151907       -5.886120408151
Te      -78.410005457669      -79.040859670859       -6.273480438735
Te      -75.273605177639      -74.905965463397       -5.886120408151
Te      -78.410005451413      -67.551211982349       -6.273480438735
Te      -75.273605171383      -63.416317774886       -5.886120408151
Te      -78.410005445157      -56.061564293838       -6.273480438735
Te      -75.273605165127      -51.926670086376       -5.886120408151
Te      -78.410005438901      -44.571916605328       -6.273480438735
Te      -75.273605158871      -40.437022397866       -5.886120408151
Te      -78.410005432644      -33.082268916818       -6.273480438735
Te      -75.273605152615      -28.947374709355       -5.886120408151
Te      -78.410005426388      -21.592621228307       -6.273480438735
Te      -75.273605146359      -17.457727020845       -5.886120408151
Te      -78.410005420132      -10.102973539797       -6.273480438735
Te      -75.273605140102       -5.968079332334       -5.886120408151
Te      -78.410005413876        1.386674148714       -6.273480438735
Te      -75.273605296939        5.521568356176       -5.886120408151
Te      -78.410005407620       12.876321837224       -6.273480438735
Te      -75.273605290683       17.011216044686       -5.886120408151
Te      -78.410005401364       24.365969525734       -6.273480438735
Te      -75.273605284427       28.500863733197       -5.886120408151
Te      -78.410005395107       35.855617214245       -6.273480438735
Te      -75.273605278171       39.990511421707       -5.886120408151
Te      -78.410005388851       47.345264902755       -6.273480438735
Te      -75.273605271914       51.480159110217       -5.886120408151
Te      -78.410005382595       58.834912591265       -6.273480438735
Te      -75.273605265658       62.969806798728       -5.886120408151
Te      -78.410005376339       70.324560279776       -6.273480438735
Te      -75.273605253129       74.459454912355       -5.886120408151
Te      -78.410005370083       81.814207968286       -6.273480438735
Te      -75.273605246873       85.949102600865       -5.886120408151
Te      -78.410005363827       93.303855656796       -6.273480438735
Te      -75.273605240617       97.438750289376       -5.886120408151
Te      -78.410005357570      104.793503345307       -6.273480438735
Te      -75.273605234361      108.928397977886       -5.886120408151
Te      -78.410005514407      116.283151033817       -6.273480438735
Te      -75.273605228105      120.418045666396       -5.886120408151
Te      -78.410005508151      127.772798722327       -6.273480438735
Te      -75.273605221848      131.907693354907       -5.886120408151
Te      -78.410005501895      139.262446410838       -6.273480438735
Te      -75.273605215592      143.397341043417       -5.886120408151
Te      -78.410005495639      150.752094099348       -6.273480438735
Te      -75.273605209336      154.886988731927       -5.886120408151
Te      -78.410005489382      162.241741787859       -6.273480438735
Te      -75.273605203080      166.376636420438       -5.886120408151
Te      -78.410005483126      173.731389476369       -6.273480438735
Te      -75.273605196824      177.866284108948       -5.886120408151
Te      -78.410005476870      185.221037164879       -6.273480438735
Te      -75.273605190568      189.355931797458       -5.886120408151
Te      -78.410005470614      196.710684853390       -6.273480438735
Te      -75.273605184311      200.845579485969       -5.886120408151
Te      -78.410005464358      208.200332541900       -6.273480438735
Te      -75.273605178055      212.335227174479       -5.886120408151
Te      -72.137205010325     -205.426984669590       -6.273480438735
Te      -69.000804724023     -201.292090037010       -5.886120408151
Te      -72.137205004069     -193.937336981079       -6.273480438735
Te      -69.000804717766     -189.802442348500       -5.886120408151
Te      -72.137204997813     -182.447689292569       -6.273480438735
Te      -69.000804711510     -178.312794659990       -5.886120408151
Te      -72.137204991557     -170.958041604059       -6.273480438735
Te      -69.000804705254     -166.823146971479       -5.886120408151
Te      -72.137204985300     -159.468393915548       -6.273480438735
Te      -69.000804698998     -155.333499282969       -5.886120408151
Te      -72.137204972772     -147.978745801921       -6.273480438735
Te      -69.000804855835     -143.843851594459       -5.886120408151
Te      -72.137204966515     -136.489098113411       -6.273480438735
Te      -69.000804849578     -132.354203905948       -5.886120408151
Te      -72.137204960259     -124.999450424900       -6.273480438735
Te      -69.000804843322     -120.864556217438       -5.886120408151
Te      -72.137204954003     -113.509802736390       -6.273480438735
Te      -69.000804837066     -109.374908528928       -5.886120408151
Te      -72.137204947747     -102.020155047880       -6.273480438735
Te      -69.000804830810      -97.885260840417       -5.886120408151
Te      -72.137204941491      -90.530507359369       -6.273480438735
Te      -69.000804824554      -86.395613151907       -5.886120408151
Te      -72.137204935235      -79.040859670859       -6.273480438735
Te      -69.000804818298      -74.905965463397       -5.886120408151
Te      -72.137204928978      -67.551211982349       -6.273480438735
Te      -69.000804812041      -63.416317774886       -5.886120408151
Te      -72.137204922722      -56.061564293838       -6.273480438735
Te      -69.000804805785      -51.926670086376       -5.886120408151
Te      -72.137204916466      -44.571916605328       -6.273480438735
Te      -69.000804799529      -40.437022397866       -5.886120408151
Te      -72.137205073303      -33.082268916818       -6.273480438735
Te      -69.000804793273      -28.947374709355       -5.886120408151
Te      -72.137205067046      -21.592621228307       -6.273480438735
Te      -69.000804787017      -17.457727020845       -5.886120408151
Te      -72.137205060790      -10.102973539797       -6.273480438735
Te      -69.000804780761       -5.968079332334       -5.886120408151
Te      -72.137205054534        1.386674148714       -6.273480438735
Te      -69.000804774504        5.521568356176       -5.886120408151
Te      -72.137205048278       12.876321837224       -6.273480438735
Te      -69.000804768248       17.011216044686       -5.886120408151
Te      -72.137205042022       24.365969525734       -6.273480438735
Te      -69.000804761992       28.500863733197       -5.886120408151
Te      -72.137205035766       35.855617214245       -6.273480438735
Te      -69.000804755736       39.990511421707       -5.886120408151
Te      -72.137205029509       47.345264902755       -6.273480438735
Te      -69.000804749480       51.480159110217       -5.886120408151
Te      -72.137205023253       58.834912591265       -6.273480438735
Te      -69.000804743224       62.969806798728       -5.886120408151
Te      -72.137205016997       70.324560279776       -6.273480438735
Te      -69.000804730695       74.459454912355       -5.886120408151
Te      -72.137205010741       81.814207968286       -6.273480438735
Te      -69.000804724438       85.949102600865       -5.886120408151
Te      -72.137205004485       93.303855656796       -6.273480438735
Te      -69.000804718182       97.438750289376       -5.886120408151
Te      -72.137204998229      104.793503345307       -6.273480438735
Te      -69.000804711926      108.928397977886       -5.886120408151
Te      -72.137204991972      116.283151033817       -6.273480438735
Te      -69.000804705670      120.418045666396       -5.886120408151
Te      -72.137204985716      127.772798722327       -6.273480438735
Te      -69.000804699414      131.907693354907       -5.886120408151
Te      -72.137204979460      139.262446410838       -6.273480438735
Te      -69.000804856250      143.397341043417       -5.886120408151
Te      -72.137204973204      150.752094099348       -6.273480438735
Te      -69.000804849994      154.886988731927       -5.886120408151
Te      -72.137204966948      162.241741787859       -6.273480438735
Te      -69.000804843738      166.376636420438       -5.886120408151
Te      -72.137204960692      173.731389476369       -6.273480438735
Te      -69.000804837482      177.866284108948       -5.886120408151
Te      -72.137204954435      185.221037164879       -6.273480438735
Te      -69.000804831226      189.355931797458       -5.886120408151
Te      -72.137204948179      196.710684853390       -6.273480438735
Te      -69.000804824970      200.845579485969       -5.886120408151
Te      -72.137204941923      208.200332541900       -6.273480438735
Te      -69.000804818713      212.335227174479       -5.886120408151
Te      -65.864404487891     -205.426984669590       -6.273480438735
Te      -62.728004364681     -201.292090037010       -5.886120408151
Te      -65.864404644727     -193.937336981079       -6.273480438735
Te      -62.728004358425     -189.802442348500       -5.886120408151
Te      -65.864404638471     -182.447689292569       -6.273480438735
Te      -62.728004352169     -178.312794659990       -5.886120408151
Te      -65.864404632215     -170.958041604059       -6.273480438735
Te      -62.728004345912     -166.823146971479       -5.886120408151
Te      -65.864404625959     -159.468393915548       -6.273480438735
Te      -62.728004339656     -155.333499282969       -5.886120408151
Te      -65.864404613430     -147.978745801921       -6.273480438735
Te      -62.728004333400     -143.843851594459       -5.886120408151
Te      -65.864404607174     -136.489098113411       -6.273480438735
Te      -62.728004327144     -132.354203905948       -5.886120408151
Te      -65.864404600917     -124.999450424900       -6.273480438735
Te      -62.728004320888     -120.864556217438       -5.886120408151
Te      -65.864404594661     -113.509802736390       -6.273480438735
Te      -62.728004314632     -109.374908528928       -5.886120408151
Te      -65.864404588405     -102.020155047880       -6.273480438735
Te      -62.728004308375      -97.885260840417       -5.886120408151
Te      -65.864404582149      -90.530507359369       -6.273480438735
Te      -62.728004302119      -86.395613151907       -5.886120408151
Te      -65.864404575893      -79.040859670859       -6.273480438735
Te      -62.728004295863      -74.905965463397       -5.886120408151
Te      -65.864404569637      -67.551211982349       -6.273480438735
Te      -62.728004289607      -63.416317774886       -5.886120408151
Te      -65.864404563380      -56.061564293838       -6.273480438735
Te      -62.728004283351      -51.926670086376       -5.886120408151
Te      -65.864404557124      -44.571916605328       -6.273480438735
Te      -62.728004277095      -40.437022397866       -5.886120408151
Te      -65.864404550868      -33.082268916818       -6.273480438735
Te      -62.728004270838      -28.947374709355       -5.886120408151
Te      -65.864404544612      -21.592621228307       -6.273480438735
Te      -62.728004427675      -17.457727020845       -5.886120408151
Te      -65.864404538356      -10.102973539797       -6.273480438735
Te      -62.728004421419       -5.968079332334       -5.886120408151
Te      -65.864404532100        1.386674148714       -6.273480438735
Te      -62.728004415163        5.521568356176       -5.886120408151
Te      -65.864404525843       12.876321837224       -6.273480438735
Te      -62.728004408906       17.011216044686       -5.886120408151
Te      -65.864404519587       24.365969525734       -6.273480438735
Te      -62.728004402650       28.500863733197       -5.886120408151
Te      -65.864404513331       35.855617214245       -6.273480438735
Te      -62.728004396394       39.990511421707       -5.886120408151
Te      -65.864404507075       47.345264902755       -6.273480438735
Te      -62.728004390138       51.480159110217       -5.886120408151
Te      -65.864404500819       58.834912591265       -6.273480438735
Te      -62.728004383882       62.969806798728       -5.886120408151
Te      -65.864404494563       70.324560279776       -6.273480438735
Te      -62.728004371353       74.459454912355       -5.886120408151
Te      -65.864404488306       81.814207968286       -6.273480438735
Te      -62.728004365097       85.949102600865       -5.886120408151
Te      -65.864404645143       93.303855656796       -6.273480438735
Te      -62.728004358840       97.438750289376       -5.886120408151
Te      -65.864404638887      104.793503345307       -6.273480438735
Te      -62.728004352584      108.928397977886       -5.886120408151
Te      -65.864404632631      116.283151033817       -6.273480438735
Te      -62.728004346328      120.418045666396       -5.886120408151
Te      -65.864404626374      127.772798722327       -6.273480438735
Te      -62.728004340072      131.907693354907       -5.886120408151
Te      -65.864404620118      139.262446410838       -6.273480438735
Te      -62.728004333816      143.397341043417       -5.886120408151
Te      -65.864404613862      150.752094099348       -6.273480438735
Te      -62.728004327560      154.886988731927       -5.886120408151
Te      -65.864404607606      162.241741787859       -6.273480438735
Te      -62.728004321303      166.376636420438       -5.886120408151
Te      -65.864404601350      173.731389476369       -6.273480438735
Te      -62.728004315047      177.866284108948       -5.886120408151
Te      -65.864404595094      185.221037164879       -6.273480438735
Te      -62.728004308791      189.355931797458       -5.886120408151
Te      -65.864404588837      196.710684853390       -6.273480438735
Te      -62.728004302535      200.845579485969       -5.886120408151
Te      -65.864404582581      208.200332541900       -6.273480438735
Te      -62.728004296279      212.335227174479       -5.886120408151
Te      -59.591604128549     -205.426984669590       -6.273480438735
Te      -56.455203842246     -201.292090037010       -5.886120408151
Te      -59.591604122293     -193.937336981079       -6.273480438735
Te      -56.455203835990     -189.802442348500       -5.886120408151
Te      -59.591604116036     -182.447689292569       -6.273480438735
Te      -56.455203829734     -178.312794659990       -5.886120408151
Te      -59.591604109780     -170.958041604059       -6.273480438735
Te      -56.455203986571     -166.823146971479       -5.886120408151
Te      -59.591604103524     -159.468393915548       -6.273480438735
Te      -56.455203980314     -155.333499282969       -5.886120408151
Te      -59.591604090995     -147.978745801921       -6.273480438735
Te      -56.455203974058     -143.843851594459       -5.886120408151
Te      -59.591604084739     -136.489098113411       -6.273480438735
Te      -56.455203967802     -132.354203905948       -5.886120408151
Te      -59.591604078483     -124.999450424900       -6.273480438735
Te      -56.455203961546     -120.864556217438       -5.886120408151
Te      -59.591604072227     -113.509802736390       -6.273480438735
Te      -56.455203955290     -109.374908528928       -5.886120408151
Te      -59.591604065970     -102.020155047880       -6.273480438735
Te      -56.455203949034      -97.885260840417       -5.886120408151
Te      -59.591604059714      -90.530507359369       -6.273480438735
Te      -56.455203942777      -86.395613151907       -5.886120408151
Te      -59.591604053458      -79.040859670859       -6.273480438735
Te      -56.455203936521      -74.905965463397       -5.886120408151
Te      -59.591604047202      -67.551211982349       -6.273480438735
Te      -56.455203930265      -63.416317774886       -5.886120408151
Te      -59.591604204039      -56.061564293838       -6.273480438735
Te      -56.455203924009      -51.926670086376       -5.886120408151
Te      -59.591604197782      -44.571916605328       -6.273480438735
Te      -56.455203917753      -40.437022397866       -5.886120408151
Te      -59.591604191526      -33.082268916818       -6.273480438735
Te      -56.455203911497      -28.947374709355       -5.886120408151
Te      -59.591604185270      -21.592621228307       -6.273480438735
Te      -56.455203905240      -17.457727020845       -5.886120408151
Te      -59.591604179014      -10.102973539797       -6.273480438735
Te      -56.455203898984       -5.968079332334       -5.886120408151
Te      -59.591604172758        1.386674148714       -6.273480438735
Te      -56.455203892728        5.521568356176       -5.886120408151
Te      -59.591604166502       12.876321837224       -6.273480438735
Te      -56.455203886472       17.011216044686       -5.886120408151
Te      -59.591604160245       24.365969525734       -6.273480438735
Te      -56.455203880216       28.500863733197       -5.886120408151
Te      -59.591604153989       35.855617214245       -6.273480438735
Te      -56.455203873960       39.990511421707       -5.886120408151
Te      -59.591604147733       47.345264902755       -6.273480438735
Te      -56.455203867703       51.480159110217       -5.886120408151
Te      -59.591604141477       58.834912591265       -6.273480438735
Te      -56.455203861447       62.969806798728       -5.886120408151
Te      -59.591604135221       70.324560279776       -6.273480438735
Te      -56.455203848918       74.459454912355       -5.886120408151
Te      -59.591604128965       81.814207968286       -6.273480438735
Te      -56.455203842662       85.949102600865       -5.886120408151
Te      -59.591604122708       93.303855656796       -6.273480438735
Te      -56.455203836406       97.438750289376       -5.886120408151
Te      -59.591604116452      104.793503345307       -6.273480438735
Te      -56.455203830150      108.928397977886       -5.886120408151
Te      -59.591604110196      116.283151033817       -6.273480438735
Te      -56.455203986986      120.418045666396       -5.886120408151
Te      -59.591604103940      127.772798722327       -6.273480438735
Te      -56.455203980730      131.907693354907       -5.886120408151
Te      -59.591604097684      139.262446410838       -6.273480438735
Te      -56.455203974474      143.397341043417       -5.886120408151
Te      -59.591604091428      150.752094099348       -6.273480438735
Te      -56.455203968218      154.886988731927       -5.886120408151
Te      -59.591604085171      162.241741787859       -6.273480438735
Te      -56.455203961962      166.376636420438       -5.886120408151
Te      -59.591604078915      173.731389476369       -6.273480438735
Te      -56.455203955706      177.866284108948       -5.886120408151
Te      -59.591604072659      185.221037164879       -6.273480438735
Te      -56.455203949449      189.355931797458       -5.886120408151
Te      -59.591604066403      196.710684853390       -6.273480438735
Te      -56.455203943193      200.845579485969       -5.886120408151
Te      -59.591604060147      208.200332541900       -6.273480438735
Te      -56.455203936937      212.335227174479       -5.886120408151
Te      -53.318803769207     -205.426984669590       -6.273480438735
Te      -50.182403482904     -201.292090037010       -5.886120408151
Te      -53.318803762951     -193.937336981079       -6.273480438735
Te      -50.182403476648     -189.802442348500       -5.886120408151
Te      -53.318803756695     -182.447689292569       -6.273480438735
Te      -50.182403470392     -178.312794659990       -5.886120408151
Te      -53.318803750439     -170.958041604059       -6.273480438735
Te      -50.182403464136     -166.823146971479       -5.886120408151
Te      -53.318803744182     -159.468393915548       -6.273480438735
Te      -50.182403457880     -155.333499282969       -5.886120408151
Te      -53.318803731653     -147.978745801921       -6.273480438735
Te      -50.182403451624     -143.843851594459       -5.886120408151
Te      -53.318803725397     -136.489098113411       -6.273480438735
Te      -50.182403445367     -132.354203905948       -5.886120408151
Te      -53.318803719141     -124.999450424900       -6.273480438735
Te      -50.182403439111     -120.864556217438       -5.886120408151
Te      -53.318803712885     -113.509802736390       -6.273480438735
Te      -50.182403432855     -109.374908528928       -5.886120408151
Te      -53.318803706629     -102.020155047880       -6.273480438735
Te      -50.182403426599      -97.885260840417       -5.886120408151
Te      -53.318803700373      -90.530507359369       -6.273480438735
Te      -50.182403420343      -86.395613151907       -5.886120408151
Te      -53.318803694116      -79.040859670859       -6.273480438735
Te      -50.182403414087      -74.905965463397       -5.886120408151
Te      -53.318803687860      -67.551211982349       -6.273480438735
Te      -50.182403407830      -63.416317774886       -5.886120408151
Te      -53.318803681604      -56.061564293838       -6.273480438735
Te      -50.182403401574      -51.926670086376       -5.886120408151
Te      -53.318803675348      -44.571916605328       -6.273480438735
Te      -50.182403558411      -40.437022397866       -5.886120408151
Te      -53.318803669092      -33.082268916818       -6.273480438735
Te      -50.182403552155      -28.947374709355       -5.886120408151
Te      -53.318803662836      -21.592621228307       -6.273480438735
Te      -50.182403545899      -17.457727020845       -5.886120408151
Te      -53.318803656579      -10.102973539797       -6.273480438735
Te      -50.182403539642       -5.968079332334       -5.886120408151
Te      -53.318803650323        1.386674148714       -6.273480438735
Te      -50.182403533386        5.521568356176       -5.886120408151
Te      -53.318803644067       12.876321837224       -6.273480438735
Te      -50.182403527130       17.011216044686       -5.886120408151
Te      -53.318803637811       24.365969525734       -6.273480438735
Te      -50.182403520874       28.500863733197       -5.886120408151
Te      -53.318803631555       35.855617214245       -6.273480438735
Te      -50.182403514618       39.990511421707       -5.886120408151
Te      -53.318803625299       47.345264902755       -6.273480438735
Te      -50.182403508362       51.480159110217       -5.886120408151
Te      -53.318803619042       58.834912591265       -6.273480438735
Te      -50.182403502105       62.969806798728       -5.886120408151
Te      -53.318803775879       70.324560279776       -6.273480438735
Te      -50.182403489576       74.459454912355       -5.886120408151
Te      -53.318803769623       81.814207968286       -6.273480438735
Te      -50.182403483320       85.949102600865       -5.886120408151
Te      -53.318803763367       93.303855656796       -6.273480438735
Te      -50.182403477064       97.438750289376       -5.886120408151
Te      -53.318803757110      104.793503345307       -6.273480438735
Te      -50.182403470808      108.928397977886       -5.886120408151
Te      -53.318803750854      116.283151033817       -6.273480438735
Te      -50.182403464552      120.418045666396       -5.886120408151
Te      -53.318803744598      127.772798722327       -6.273480438735
Te      -50.182403458296      131.907693354907       -5.886120408151
Te      -53.318803738342      139.262446410838       -6.273480438735
Te      -50.182403452039      143.397341043417       -5.886120408151
Te      -53.318803732086      150.752094099348       -6.273480438735
Te      -50.182403445783      154.886988731927       -5.886120408151
Te      -53.318803725830      162.241741787859       -6.273480438735
Te      -50.182403439527      166.376636420438       -5.886120408151
Te      -53.318803719573      173.731389476369       -6.273480438735
Te      -50.182403433271      177.866284108948       -5.886120408151
Te      -53.318803713317      185.221037164879       -6.273480438735
Te      -50.182403427015      189.355931797458       -5.886120408151
Te      -53.318803707061      196.710684853390       -6.273480438735
Te      -50.182403420759      200.845579485969       -5.886120408151
Te      -53.318803700805      208.200332541900       -6.273480438735
Te      -50.182403414502      212.335227174479       -5.886120408151
Te      -47.046003246772     -205.426984669590       -6.273480438735
Te      -43.909602960470     -201.292090037010       -5.886120408151
Te      -47.046003240516     -193.937336981079       -6.273480438735
Te      -43.909603117307     -189.802442348500       -5.886120408151
Te      -47.046003234260     -182.447689292569       -6.273480438735
Te      -43.909603111050     -178.312794659990       -5.886120408151
Te      -47.046003228004     -170.958041604059       -6.273480438735
Te      -43.909603104794     -166.823146971479       -5.886120408151
Te      -47.046003221748     -159.468393915548       -6.273480438735
Te      -43.909603098538     -155.333499282969       -5.886120408151
Te      -47.046003209219     -147.978745801921       -6.273480438735
Te      -43.909603092282     -143.843851594459       -5.886120408151
Te      -47.046003202963     -136.489098113411       -6.273480438735
Te      -43.909603086026     -132.354203905948       -5.886120408151
Te      -47.046003196706     -124.999450424900       -6.273480438735
Te      -43.909603079770     -120.864556217438       -5.886120408151
Te      -47.046003190450     -113.509802736390       -6.273480438735
Te      -43.909603073513     -109.374908528928       -5.886120408151
Te      -47.046003184194     -102.020155047880       -6.273480438735
Te      -43.909603067257      -97.885260840417       -5.886120408151
Te      -47.046003177938      -90.530507359369       -6.273480438735
Te      -43.909603061001      -86.395613151907       -5.886120408151
Te      -47.046003334775      -79.040859670859       -6.273480438735
Te      -43.909603054745      -74.905965463397       -5.886120408151
Te      -47.046003328518      -67.551211982349       -6.273480438735
Te      -43.909603048489      -63.416317774886       -5.886120408151
Te      -47.046003322262      -56.061564293838       -6.273480438735
Te      -43.909603042233      -51.926670086376       -5.886120408151
Te      -47.046003316006      -44.571916605328       -6.273480438735
Te      -43.909603035976      -40.437022397866       -5.886120408151
Te      -47.046003309750      -33.082268916818       -6.273480438735
Te      -43.909603029720      -28.947374709355       -5.886120408151
Te      -47.046003303494      -21.592621228307       -6.273480438735
Te      -43.909603023464      -17.457727020845       -5.886120408151
Te      -47.046003297238      -10.102973539797       -6.273480438735
Te      -43.909603017208       -5.968079332334       -5.886120408151
Te      -47.046003290981        1.386674148714       -6.273480438735
Te      -43.909603010952        5.521568356176       -5.886120408151
Te      -47.046003284725       12.876321837224       -6.273480438735
Te      -43.909603004696       17.011216044686       -5.886120408151
Te      -47.046003278469       24.365969525734       -6.273480438735
Te      -43.909602998439       28.500863733197       -5.886120408151
Te      -47.046003272213       35.855617214245       -6.273480438735
Te      -43.909602992183       39.990511421707       -5.886120408151
Te      -47.046003265957       47.345264902755       -6.273480438735
Te      -43.909602985927       51.480159110217       -5.886120408151
Te      -47.046003259701       58.834912591265       -6.273480438735
Te      -43.909602979671       62.969806798728       -5.886120408151
Te      -47.046003253444       70.324560279776       -6.273480438735
Te      -43.909602967142       74.459454912355       -5.886120408151
Te      -47.046003247188       81.814207968286       -6.273480438735
Te      -43.909602960886       85.949102600865       -5.886120408151
Te      -47.046003240932       93.303855656796       -6.273480438735
Te      -43.909603117722       97.438750289376       -5.886120408151
Te      -47.046003234676      104.793503345307       -6.273480438735
Te      -43.909603111466      108.928397977886       -5.886120408151
Te      -47.046003228420      116.283151033817       -6.273480438735
Te      -43.909603105210      120.418045666396       -5.886120408151
Te      -47.046003222164      127.772798722327       -6.273480438735
Te      -43.909603098954      131.907693354907       -5.886120408151
Te      -47.046003215907      139.262446410838       -6.273480438735
Te      -43.909603092698      143.397341043417       -5.886120408151
Te      -47.046003209651      150.752094099348       -6.273480438735
Te      -43.909603086442      154.886988731927       -5.886120408151
Te      -47.046003203395      162.241741787859       -6.273480438735
Te      -43.909603080185      166.376636420438       -5.886120408151
Te      -47.046003197139      173.731389476369       -6.273480438735
Te      -43.909603073929      177.866284108948       -5.886120408151
Te      -47.046003190883      185.221037164879       -6.273480438735
Te      -43.909603067673      189.355931797458       -5.886120408151
Te      -47.046003184627      196.710684853390       -6.273480438735
Te      -43.909603061417      200.845579485969       -5.886120408151
Te      -47.046003341463      208.200332541900       -6.273480438735
Te      -43.909603055161      212.335227174479       -5.886120408151
Te      -40.773202887431     -205.426984669590       -6.273480438735
Te      -37.636802601128     -201.292090037010       -5.886120408151
Te      -40.773202881174     -193.937336981079       -6.273480438735
Te      -37.636802594872     -189.802442348500       -5.886120408151
Te      -40.773202874918     -182.447689292569       -6.273480438735
Te      -37.636802588616     -178.312794659990       -5.886120408151
Te      -40.773202868662     -170.958041604059       -6.273480438735
Te      -37.636802582360     -166.823146971479       -5.886120408151
Te      -40.773202862406     -159.468393915548       -6.273480438735
Te      -37.636802576103     -155.333499282969       -5.886120408151
Te      -40.773202849877     -147.978745801921       -6.273480438735
Te      -37.636802569847     -143.843851594459       -5.886120408151
Te      -40.773202843621     -136.489098113411       -6.273480438735
Te      -37.636802563591     -132.354203905948       -5.886120408151
Te      -40.773202837365     -124.999450424900       -6.273480438735
Te      -37.636802557335     -120.864556217438       -5.886120408151
Te      -40.773202831108     -113.509802736390       -6.273480438735
Te      -37.636802551079     -109.374908528928       -5.886120408151
Te      -40.773202824852     -102.020155047880       -6.273480438735
Te      -37.636802544823      -97.885260840417       -5.886120408151
Te      -40.773202818596      -90.530507359369       -6.273480438735
Te      -37.636802538566      -86.395613151907       -5.886120408151
Te      -40.773202812340      -79.040859670859       -6.273480438735
Te      -37.636802532310      -74.905965463397       -5.886120408151
Te      -40.773202806084      -67.551211982349       -6.273480438735
Te      -37.636802689147      -63.416317774886       -5.886120408151
Te      -40.773202799828      -56.061564293838       -6.273480438735
Te      -37.636802682891      -51.926670086376       -5.886120408151
Te      -40.773202793571      -44.571916605328       -6.273480438735
Te      -37.636802676635      -40.437022397866       -5.886120408151
Te      -40.773202787315      -33.082268916818       -6.273480438735
Te      -37.636802670378      -28.947374709355       -5.886120408151
Te      -40.773202781059      -21.592621228307       -6.273480438735
Te      -37.636802664122      -17.457727020845       -5.886120408151
Te      -40.773202774803      -10.102973539797       -6.273480438735
Te      -37.636802657866       -5.968079332334       -5.886120408151
Te      -40.773202768547        1.386674148714       -6.273480438735
Te      -37.636802651610        5.521568356176       -5.886120408151
Te      -40.773202762291       12.876321837224       -6.273480438735
Te      -37.636802645354       17.011216044686       -5.886120408151
Te      -40.773202756034       24.365969525734       -6.273480438735
Te      -37.636802639098       28.500863733197       -5.886120408151
Te      -40.773202749778       35.855617214245       -6.273480438735
Te      -37.636802632841       39.990511421707       -5.886120408151
Te      -40.773202743522       47.345264902755       -6.273480438735
Te      -37.636802626585       51.480159110217       -5.886120408151
Te      -40.773202900359       58.834912591265       -6.273480438735
Te      -37.636802620329       62.969806798728       -5.886120408151
Te      -40.773202894103       70.324560279776       -6.273480438735
Te      -37.636802607800       74.459454912355       -5.886120408151
Te      -40.773202887846       81.814207968286       -6.273480438735
Te      -37.636802601544       85.949102600865       -5.886120408151
Te      -40.773202881590       93.303855656796       -6.273480438735
Te      -37.636802595288       97.438750289376       -5.886120408151
Te      -40.773202875334      104.793503345307       -6.273480438735
Te      -37.636802589032      108.928397977886       -5.886120408151
Te      -40.773202869078      116.283151033817       -6.273480438735
Te      -37.636802582775      120.418045666396       -5.886120408151
Te      -40.773202862822      127.772798722327       -6.273480438735
Te      -37.636802576519      131.907693354907       -5.886120408151
Te      -40.773202856566      139.262446410838       -6.273480438735
Te      -37.636802570263      143.397341043417       -5.886120408151
Te      -40.773202850309      150.752094099348       -6.273480438735
Te      -37.636802564007      154.886988731927       -5.886120408151
Te      -40.773202844053      162.241741787859       -6.273480438735
Te      -37.636802557751      166.376636420438       -5.886120408151
Te      -40.773202837797      173.731389476369       -6.273480438735
Te      -37.636802551495      177.866284108948       -5.886120408151
Te      -40.773202831541      185.221037164879       -6.273480438735
Te      -37.636802545238      189.355931797458       -5.886120408151
Te      -40.773202825285      196.710684853390       -6.273480438735
Te      -37.636802538982      200.845579485969       -5.886120408151
Te      -40.773202819029      208.200332541900       -6.273480438735
Te      -37.636802532726      212.335227174479       -5.886120408151
Te      -34.500402364996     -205.426984669590       -6.273480438735
Te      -31.364002241786     -201.292090037010       -5.886120408151
Te      -34.500402358740     -193.937336981079       -6.273480438735
Te      -31.364002235530     -189.802442348500       -5.886120408151
Te      -34.500402352484     -182.447689292569       -6.273480438735
Te      -31.364002229274     -178.312794659990       -5.886120408151
Te      -34.500402346228     -170.958041604059       -6.273480438735
Te      -31.364002223018     -166.823146971479       -5.886120408151
Te      -34.500402339971     -159.468393915548       -6.273480438735
Te      -31.364002216762     -155.333499282969       -5.886120408151
Te      -34.500402327442     -147.978745801921       -6.273480438735
Te      -31.364002210506     -143.843851594459       -5.886120408151
Te      -34.500402321186     -136.489098113411       -6.273480438735
Te      -31.364002204249     -132.354203905948       -5.886120408151
Te      -34.500402314930     -124.999450424900       -6.273480438735
Te      -31.364002197993     -120.864556217438       -5.886120408151
Te      -34.500402308674     -113.509802736390       -6.273480438735
Te      -31.364002191737     -109.374908528928       -5.886120408151
Te      -34.500402465511     -102.020155047880       -6.273480438735
Te      -31.364002185481      -97.885260840417       -5.886120408151
Te      -34.500402459254      -90.530507359369       -6.273480438735
Te      -31.364002179225      -86.395613151907       -5.886120408151
Te      -34.500402452998      -79.040859670859       -6.273480438735
Te      -31.364002172968      -74.905965463397       -5.886120408151
Te      -34.500402446742      -67.551211982349       -6.273480438735
Te      -31.364002166712      -63.416317774886       -5.886120408151
Te      -34.500402440486      -56.061564293838       -6.273480438735
Te      -31.364002160456      -51.926670086376       -5.886120408151
Te      -34.500402434230      -44.571916605328       -6.273480438735
Te      -31.364002154200      -40.437022397866       -5.886120408151
Te      -34.500402427974      -33.082268916818       -6.273480438735
Te      -31.364002147944      -28.947374709355       -5.886120408151
Te      -34.500402421717      -21.592621228307       -6.273480438735
Te      -31.364002141688      -17.457727020845       -5.886120408151
Te      -34.500402415461      -10.102973539797       -6.273480438735
Te      -31.364002135431       -5.968079332334       -5.886120408151
Te      -34.500402409205        1.386674148714       -6.273480438735
Te      -31.364002129175        5.521568356176       -5.886120408151
Te      -34.500402402949       12.876321837224       -6.273480438735
Te      -31.364002122919       17.011216044686       -5.886120408151
Te      -34.500402396693       24.365969525734       -6.273480438735
Te      -31.364002116663       28.500863733197       -5.886120408151
Te      -34.500402390437       35.855617214245       -6.273480438735
Te      -31.364002110407       39.990511421707       -5.886120408151
Te      -34.500402384180       47.345264902755       -6.273480438735
Te      -31.364002104151       51.480159110217       -5.886120408151
Te      -34.500402377924       58.834912591265       -6.273480438735
Te      -31.364002097894       62.969806798728       -5.886120408151
Te      -34.500402371668       70.324560279776       -6.273480438735
Te      -31.364002248458       74.459454912355       -5.886120408151
Te      -34.500402365412       81.814207968286       -6.273480438735
Te      -31.364002242202       85.949102600865       -5.886120408151
Te      -34.500402359156       93.303855656796       -6.273480438735
Te      -31.364002235946       97.438750289376       -5.886120408151
Te      -34.500402352900      104.793503345307       -6.273480438735
Te      -31.364002229690      108.928397977886       -5.886120408151
Te      -34.500402346643      116.283151033817       -6.273480438735
Te      -31.364002223434      120.418045666396       -5.886120408151
Te      -34.500402340387      127.772798722327       -6.273480438735
Te      -31.364002217177      131.907693354907       -5.886120408151
Te      -34.500402334131      139.262446410838       -6.273480438735
Te      -31.364002210921      143.397341043417       -5.886120408151
Te      -34.500402327875      150.752094099348       -6.273480438735
Te      -31.364002204665      154.886988731927       -5.886120408151
Te      -34.500402321619      162.241741787859       -6.273480438735
Te      -31.364002198409      166.376636420438       -5.886120408151
Te      -34.500402315362      173.731389476369       -6.273480438735
Te      -31.364002192153      177.866284108948       -5.886120408151
Te      -34.500402472199      185.221037164879       -6.273480438735
Te      -31.364002185897      189.355931797458       -5.886120408151
Te      -34.500402465943      196.710684853390       -6.273480438735
Te      -31.364002179640      200.845579485969       -5.886120408151
Te      -34.500402459687      208.200332541900       -6.273480438735
Te      -31.364002173384      212.335227174479       -5.886120408151
Te      -28.227602005654     -205.426984669590       -6.273480438735
Te      -25.091201719352     -201.292090037010       -5.886120408151
Te      -28.227601999398     -193.937336981079       -6.273480438735
Te      -25.091201713096     -189.802442348500       -5.886120408151
Te      -28.227601993142     -182.447689292569       -6.273480438735
Te      -25.091201706839     -178.312794659990       -5.886120408151
Te      -28.227601986886     -170.958041604059       -6.273480438735
Te      -25.091201700583     -166.823146971479       -5.886120408151
Te      -28.227601980630     -159.468393915548       -6.273480438735
Te      -25.091201694327     -155.333499282969       -5.886120408151
Te      -28.227601968101     -147.978745801921       -6.273480438735
Te      -25.091201688071     -143.843851594459       -5.886120408151
Te      -28.227601961844     -136.489098113411       -6.273480438735
Te      -25.091201681815     -132.354203905948       -5.886120408151
Te      -28.227601955588     -124.999450424900       -6.273480438735
Te      -25.091201675559     -120.864556217438       -5.886120408151
Te      -28.227601949332     -113.509802736390       -6.273480438735
Te      -25.091201669302     -109.374908528928       -5.886120408151
Te      -28.227601943076     -102.020155047880       -6.273480438735
Te      -25.091201663046      -97.885260840417       -5.886120408151
Te      -28.227601936820      -90.530507359369       -6.273480438735
Te      -25.091201819883      -86.395613151907       -5.886120408151
Te      -28.227601930564      -79.040859670859       -6.273480438735
Te      -25.091201813627      -74.905965463397       -5.886120408151
Te      -28.227601924307      -67.551211982349       -6.273480438735
Te      -25.091201807371      -63.416317774886       -5.886120408151
Te      -28.227601918051      -56.061564293838       -6.273480438735
Te      -25.091201801114      -51.926670086376       -5.886120408151
Te      -28.227601911795      -44.571916605328       -6.273480438735
Te      -25.091201794858      -40.437022397866       -5.886120408151
Te      -28.227601905539      -33.082268916818       -6.273480438735
Te      -25.091201788602      -28.947374709355       -5.886120408151
Te      -28.227601899283      -21.592621228307       -6.273480438735
Te      -25.091201782346      -17.457727020845       -5.886120408151
Te      -28.227601893027      -10.102973539797       -6.273480438735
Te      -25.091201776090       -5.968079332334       -5.886120408151
Te      -28.227601886770        1.386674148714       -6.273480438735
Te      -25.091201769834        5.521568356176       -5.886120408151
Te      -28.227601880514       12.876321837224       -6.273480438735
Te      -25.091201763577       17.011216044686       -5.886120408151
Te      -28.227601874258       24.365969525734       -6.273480438735
Te      -25.091201757321       28.500863733197       -5.886120408151
Te      -28.227602031095       35.855617214245       -6.273480438735
Te      -25.091201751065       39.990511421707       -5.886120408151
Te      -28.227602024839       47.345264902755       -6.273480438735
Te      -25.091201744809       51.480159110217       -5.886120408151
Te      -28.227602018582       58.834912591265       -6.273480438735
Te      -25.091201738553       62.969806798728       -5.886120408151
Te      -28.227602012326       70.324560279776       -6.273480438735
Te      -25.091201726024       74.459454912355       -5.886120408151
Te      -28.227602006070       81.814207968286       -6.273480438735
Te      -25.091201719768       85.949102600865       -5.886120408151
Te      -28.227601999814       93.303855656796       -6.273480438735
Te      -25.091201713511       97.438750289376       -5.886120408151
Te      -28.227601993558      104.793503345307       -6.273480438735
Te      -25.091201707255      108.928397977886       -5.886120408151
Te      -28.227601987302      116.283151033817       -6.273480438735
Te      -25.091201700999      120.418045666396       -5.886120408151
Te      -28.227601981045      127.772798722327       -6.273480438735
Te      -25.091201694743      131.907693354907       -5.886120408151
Te      -28.227601974789      139.262446410838       -6.273480438735
Te      -25.091201688487      143.397341043417       -5.886120408151
Te      -28.227601968533      150.752094099348       -6.273480438735
Te      -25.091201682231      154.886988731927       -5.886120408151
Te      -28.227601962277      162.241741787859       -6.273480438735
Te      -25.091201675974      166.376636420438       -5.886120408151
Te      -28.227601956021      173.731389476369       -6.273480438735
Te      -25.091201669718      177.866284108948       -5.886120408151
Te      -28.227601949765      185.221037164879       -6.273480438735
Te      -25.091201663462      189.355931797458       -5.886120408151
Te      -28.227601943508      196.710684853390       -6.273480438735
Te      -25.091201657206      200.845579485969       -5.886120408151
Te      -28.227601937252      208.200332541900       -6.273480438735
Te      -25.091201814043      212.335227174479       -5.886120408151
Te      -21.954801483220     -205.426984669590       -6.273480438735
Te      -18.818401360010     -201.292090037010       -5.886120408151
Te      -21.954801476964     -193.937336981079       -6.273480438735
Te      -18.818401353754     -189.802442348500       -5.886120408151
Te      -21.954801470707     -182.447689292569       -6.273480438735
Te      -18.818401347498     -178.312794659990       -5.886120408151
Te      -21.954801464451     -170.958041604059       -6.273480438735
Te      -18.818401341241     -166.823146971479       -5.886120408151
Te      -21.954801458195     -159.468393915548       -6.273480438735
Te      -18.818401334985     -155.333499282969       -5.886120408151
Te      -21.954801445666     -147.978745801921       -6.273480438735
Te      -18.818401328729     -143.843851594459       -5.886120408151
Te      -21.954801439410     -136.489098113411       -6.273480438735
Te      -18.818401322473     -132.354203905948       -5.886120408151
Te      -21.954801596247     -124.999450424900       -6.273480438735
Te      -18.818401316217     -120.864556217438       -5.886120408151
Te      -21.954801589990     -113.509802736390       -6.273480438735
Te      -18.818401309961     -109.374908528928       -5.886120408151
Te      -21.954801583734     -102.020155047880       -6.273480438735
Te      -18.818401303704      -97.885260840417       -5.886120408151
Te      -21.954801577478      -90.530507359369       -6.273480438735
Te      -18.818401297448      -86.395613151907       -5.886120408151
Te      -21.954801571222      -79.040859670859       -6.273480438735
Te      -18.818401291192      -74.905965463397       -5.886120408151
Te      -21.954801564966      -67.551211982349       -6.273480438735
Te      -18.818401284936      -63.416317774886       -5.886120408151
Te      -21.954801558709      -56.061564293838       -6.273480438735
Te      -18.818401278680      -51.926670086376       -5.886120408151
Te      -21.954801552453      -44.571916605328       -6.273480438735
Te      -18.818401272424      -40.437022397866       -5.886120408151
Te      -21.954801546197      -33.082268916818       -6.273480438735
Te      -18.818401266167      -28.947374709355       -5.886120408151
Te      -21.954801539941      -21.592621228307       -6.273480438735
Te      -18.818401259911      -17.457727020845       -5.886120408151
Te      -21.954801533685      -10.102973539797       -6.273480438735
Te      -18.818401253655       -5.968079332334       -5.886120408151
Te      -21.954801527429        1.386674148714       -6.273480438735
Te      -18.818401247399        5.521568356176       -5.886120408151
Te      -21.954801521172       12.876321837224       -6.273480438735
Te      -18.818401241143       17.011216044686       -5.886120408151
Te      -21.954801514916       24.365969525734       -6.273480438735
Te      -18.818401234887       28.500863733197       -5.886120408151
Te      -21.954801508660       35.855617214245       -6.273480438735
Te      -18.818401228630       39.990511421707       -5.886120408151
Te      -21.954801502404       47.345264902755       -6.273480438735
Te      -18.818401385467       51.480159110217       -5.886120408151
Te      -21.954801496148       58.834912591265       -6.273480438735
Te      -18.818401379211       62.969806798728       -5.886120408151
Te      -21.954801489892       70.324560279776       -6.273480438735
Te      -18.818401366682       74.459454912355       -5.886120408151
Te      -21.954801483635       81.814207968286       -6.273480438735
Te      -18.818401360426       85.949102600865       -5.886120408151
Te      -21.954801477379       93.303855656796       -6.273480438735
Te      -18.818401354170       97.438750289376       -5.886120408151
Te      -21.954801471123      104.793503345307       -6.273480438735
Te      -18.818401347913      108.928397977886       -5.886120408151
Te      -21.954801464867      116.283151033817       -6.273480438735
Te      -18.818401341657      120.418045666396       -5.886120408151
Te      -21.954801458611      127.772798722327       -6.273480438735
Te      -18.818401335401      131.907693354907       -5.886120408151
Te      -21.954801452355      139.262446410838       -6.273480438735
Te      -18.818401329145      143.397341043417       -5.886120408151
Te      -21.954801446098      150.752094099348       -6.273480438735
Te      -18.818401322889      154.886988731927       -5.886120408151
Te      -21.954801602935      162.241741787859       -6.273480438735
Te      -18.818401316633      166.376636420438       -5.886120408151
Te      -21.954801596679      173.731389476369       -6.273480438735
Te      -18.818401310376      177.866284108948       -5.886120408151
Te      -21.954801590423      185.221037164879       -6.273480438735
Te      -18.818401304120      189.355931797458       -5.886120408151
Te      -21.954801584167      196.710684853390       -6.273480438735
Te      -18.818401297864      200.845579485969       -5.886120408151
Te      -21.954801577910      208.200332541900       -6.273480438735
Te      -18.818401291608      212.335227174479       -5.886120408151
Te      -15.682001123878     -205.426984669590       -6.273480438735
Te      -12.545600837575     -201.292090037010       -5.886120408151
Te      -15.682001117622     -193.937336981079       -6.273480438735
Te      -12.545600831319     -189.802442348500       -5.886120408151
Te      -15.682001111366     -182.447689292569       -6.273480438735
Te      -12.545600825063     -178.312794659990       -5.886120408151
Te      -15.682001105109     -170.958041604059       -6.273480438735
Te      -12.545600818807     -166.823146971479       -5.886120408151
Te      -15.682001098853     -159.468393915548       -6.273480438735
Te      -12.545600812551     -155.333499282969       -5.886120408151
Te      -15.682001086324     -147.978745801921       -6.273480438735
Te      -12.545600806295     -143.843851594459       -5.886120408151
Te      -15.682001080068     -136.489098113411       -6.273480438735
Te      -12.545600800038     -132.354203905948       -5.886120408151
Te      -15.682001073812     -124.999450424900       -6.273480438735
Te      -12.545600793782     -120.864556217438       -5.886120408151
Te      -15.682001067556     -113.509802736390       -6.273480438735
Te      -12.545600950619     -109.374908528928       -5.886120408151
Te      -15.682001061300     -102.020155047880       -6.273480438735
Te      -12.545600944363      -97.885260840417       -5.886120408151
Te      -15.682001055043      -90.530507359369       -6.273480438735
Te      -12.545600938107      -86.395613151907       -5.886120408151
Te      -15.682001048787      -79.040859670859       -6.273480438735
Te      -12.545600931850      -74.905965463397       -5.886120408151
Te      -15.682001042531      -67.551211982349       -6.273480438735
Te      -12.545600925594      -63.416317774886       -5.886120408151
Te      -15.682001036275      -56.061564293838       -6.273480438735
Te      -12.545600919338      -51.926670086376       -5.886120408151
Te      -15.682001030019      -44.571916605328       -6.273480438735
Te      -12.545600913082      -40.437022397866       -5.886120408151
Te      -15.682001023763      -33.082268916818       -6.273480438735
Te      -12.545600906826      -28.947374709355       -5.886120408151
Te      -15.682001017506      -21.592621228307       -6.273480438735
Te      -12.545600900570      -17.457727020845       -5.886120408151
Te      -15.682001011250      -10.102973539797       -6.273480438735
Te      -12.545600894313       -5.968079332334       -5.886120408151
Te      -15.682001004994        1.386674148714       -6.273480438735
Te      -12.545600888057        5.521568356176       -5.886120408151
Te      -15.682001161831       12.876321837224       -6.273480438735
Te      -12.545600881801       17.011216044686       -5.886120408151
Te      -15.682001155575       24.365969525734       -6.273480438735
Te      -12.545600875545       28.500863733197       -5.886120408151
Te      -15.682001149318       35.855617214245       -6.273480438735
Te      -12.545600869289       39.990511421707       -5.886120408151
Te      -15.682001143062       47.345264902755       -6.273480438735
Te      -12.545600863033       51.480159110217       -5.886120408151
Te      -15.682001136806       58.834912591265       -6.273480438735
Te      -12.545600856776       62.969806798728       -5.886120408151
Te      -15.682001130550       70.324560279776       -6.273480438735
Te      -12.545600844247       74.459454912355       -5.886120408151
Te      -15.682001124294       81.814207968286       -6.273480438735
Te      -12.545600837991       85.949102600865       -5.886120408151
Te      -15.682001118038       93.303855656796       -6.273480438735
Te      -12.545600831735       97.438750289376       -5.886120408151
Te      -15.682001111781      104.793503345307       -6.273480438735
Te      -12.545600825479      108.928397977886       -5.886120408151
Te      -15.682001105525      116.283151033817       -6.273480438735
Te      -12.545600819223      120.418045666396       -5.886120408151
Te      -15.682001099269      127.772798722327       -6.273480438735
Te      -12.545600812967      131.907693354907       -5.886120408151
Te      -15.682001093013      139.262446410838       -6.273480438735
Te      -12.545600806710      143.397341043417       -5.886120408151
Te      -15.682001086757      150.752094099348       -6.273480438735
Te      -12.545600800454      154.886988731927       -5.886120408151
Te      -15.682001080501      162.241741787859       -6.273480438735
Te      -12.545600794198      166.376636420438       -5.886120408151
Te      -15.682001074244      173.731389476369       -6.273480438735
Te      -12.545600787942      177.866284108948       -5.886120408151
Te      -15.682001067988      185.221037164879       -6.273480438735
Te      -12.545600944778      189.355931797458       -5.886120408151
Te      -15.682001061732      196.710684853390       -6.273480438735
Te      -12.545600938522      200.845579485969       -5.886120408151
Te      -15.682001055476      208.200332541900       -6.273480438735
Te      -12.545600932266      212.335227174479       -5.886120408151
Te       -9.409200601443     -205.426984669590       -6.273480438735
Te       -6.272800478234     -201.292090037010       -5.886120408151
Te       -9.409200595187     -193.937336981079       -6.273480438735
Te       -6.272800471977     -189.802442348500       -5.886120408151
Te       -9.409200588931     -182.447689292569       -6.273480438735
Te       -6.272800465721     -178.312794659990       -5.886120408151
Te       -9.409200582675     -170.958041604059       -6.273480438735
Te       -6.272800459465     -166.823146971479       -5.886120408151
Te       -9.409200576419     -159.468393915548       -6.273480438735
Te       -6.272800453209     -155.333499282969       -5.886120408151
Te       -9.409200726982     -147.978745801921       -6.273480438735
Te       -6.272800446953     -143.843851594459       -5.886120408151
Te       -9.409200720726     -136.489098113411       -6.273480438735
Te       -6.272800440697     -132.354203905948       -5.886120408151
Te       -9.409200714470     -124.999450424900       -6.273480438735
Te       -6.272800434440     -120.864556217438       -5.886120408151
Te       -9.409200708214     -113.509802736390       -6.273480438735
Te       -6.272800428184     -109.374908528928       -5.886120408151
Te       -9.409200701958     -102.020155047880       -6.273480438735
Te       -6.272800421928      -97.885260840417       -5.886120408151
Te       -9.409200695702      -90.530507359369       -6.273480438735
Te       -6.272800415672      -86.395613151907       -5.886120408151
Te       -9.409200689445      -79.040859670859       -6.273480438735
Te       -6.272800409416      -74.905965463397       -5.886120408151
Te       -9.409200683189      -67.551211982349       -6.273480438735
Te       -6.272800403160      -63.416317774886       -5.886120408151
Te       -9.409200676933      -56.061564293838       -6.273480438735
Te       -6.272800396903      -51.926670086376       -5.886120408151
Te       -9.409200670677      -44.571916605328       -6.273480438735
Te       -6.272800390647      -40.437022397866       -5.886120408151
Te       -9.409200664421      -33.082268916818       -6.273480438735
Te       -6.272800384391      -28.947374709355       -5.886120408151
Te       -9.409200658165      -21.592621228307       -6.273480438735
Te       -6.272800378135      -17.457727020845       -5.886120408151
Te       -9.409200651908      -10.102973539797       -6.273480438735
Te       -6.272800371879       -5.968079332334       -5.886120408151
Te       -9.409200645652        1.386674148714       -6.273480438735
Te       -6.272800365623        5.521568356176       -5.886120408151
Te       -9.409200639396       12.876321837224       -6.273480438735
Te       -6.272800359366       17.011216044686       -5.886120408151
Te       -9.409200633140       24.365969525734       -6.273480438735
Te       -6.272800516203       28.500863733197       -5.886120408151
Te       -9.409200626884       35.855617214245       -6.273480438735
Te       -6.272800509947       39.990511421707       -5.886120408151
Te       -9.409200620628       47.345264902755       -6.273480438735
Te       -6.272800503691       51.480159110217       -5.886120408151
Te       -9.409200614371       58.834912591265       -6.273480438735
Te       -6.272800497435       62.969806798728       -5.886120408151
Te       -9.409200608115       70.324560279776       -6.273480438735
Te       -6.272800484906       74.459454912355       -5.886120408151
Te       -9.409200601859       81.814207968286       -6.273480438735
Te       -6.272800478649       85.949102600865       -5.886120408151
Te       -9.409200595603       93.303855656796       -6.273480438735
Te       -6.272800472393       97.438750289376       -5.886120408151
Te       -9.409200589347      104.793503345307       -6.273480438735
Te       -6.272800466137      108.928397977886       -5.886120408151
Te       -9.409200583091      116.283151033817       -6.273480438735
Te       -6.272800459881      120.418045666396       -5.886120408151
Te       -9.409200576834      127.772798722327       -6.273480438735
Te       -6.272800453625      131.907693354907       -5.886120408151
Te       -9.409200733671      139.262446410838       -6.273480438735
Te       -6.272800447369      143.397341043417       -5.886120408151
Te       -9.409200727415      150.752094099348       -6.273480438735
Te       -6.272800441112      154.886988731927       -5.886120408151
Te       -9.409200721159      162.241741787859       -6.273480438735
Te       -6.272800434856      166.376636420438       -5.886120408151
Te       -9.409200714903      173.731389476369       -6.273480438735
Te       -6.272800428600      177.866284108948       -5.886120408151
Te       -9.409200708646      185.221037164879       -6.273480438735
Te       -6.272800422344      189.355931797458       -5.886120408151
Te       -9.409200702390      196.710684853390       -6.273480438735
Te       -6.272800416088      200.845579485969       -5.886120408151
Te       -9.409200696134      208.200332541900       -6.273480438735
Te       -6.272800409832      212.335227174479       -5.886120408151
Te       -3.136400242102     -205.426984669590       -6.273480438735
Te        0.000000044201     -201.292090037010       -5.886120408151
Te       -3.136400235845     -193.937336981079       -6.273480438735
Te        0.000000050457     -189.802442348500       -5.886120408151
Te       -3.136400229589     -182.447689292569       -6.273480438735
Te        0.000000056713     -178.312794659990       -5.886120408151
Te       -3.136400223333     -170.958041604059       -6.273480438735
Te        0.000000062970     -166.823146971479       -5.886120408151
Te       -3.136400217077     -159.468393915548       -6.273480438735
Te        0.000000069226     -155.333499282969       -5.886120408151
Te       -3.136400204548     -147.978745801921       -6.273480438735
Te        0.000000075482     -143.843851594459       -5.886120408151
Te       -3.136400198292     -136.489098113411       -6.273480438735
Te       -0.000000081355     -132.354203905948       -5.886120408151
Te       -3.136400192036     -124.999450424900       -6.273480438735
Te       -0.000000075099     -120.864556217438       -5.886120408151
Te       -3.136400185779     -113.509802736390       -6.273480438735
Te       -0.000000068842     -109.374908528928       -5.886120408151
Te       -3.136400179523     -102.020155047880       -6.273480438735
Te       -0.000000062586      -97.885260840417       -5.886120408151
Te       -3.136400173267      -90.530507359369       -6.273480438735
Te       -0.000000056330      -86.395613151907       -5.886120408151
Te       -3.136400167011      -79.040859670859       -6.273480438735
Te       -0.000000050074      -74.905965463397       -5.886120408151
Te       -3.136400160755      -67.551211982349       -6.273480438735
Te       -0.000000043818      -63.416317774886       -5.886120408151
Te       -3.136400154499      -56.061564293838       -6.273480438735
Te       -0.000000037562      -51.926670086376       -5.886120408151
Te       -3.136400148242      -44.571916605328       -6.273480438735
Te       -0.000000031305      -40.437022397866       -5.886120408151
Te       -3.136400141986      -33.082268916818       -6.273480438735
Te       -0.000000025049      -28.947374709355       -5.886120408151
Te       -3.136400135730      -21.592621228307       -6.273480438735
Te       -0.000000018793      -17.457727020845       -5.886120408151
Te       -3.136400292567      -10.102973539797       -6.273480438735
Te       -0.000000012537       -5.968079332334       -5.886120408151
Te       -3.136400286310        1.386674148714       -6.273480438735
Te       -0.000000006281        5.521568356176       -5.886120408151
Te       -3.136400280054       12.876321837224       -6.273480438735
Te       -0.000000000025       17.011216044686       -5.886120408151
Te       -3.136400273798       24.365969525734       -6.273480438735
Te        0.000000006232       28.500863733197       -5.886120408151
Te       -3.136400267542       35.855617214245       -6.273480438735
Te        0.000000012488       39.990511421707       -5.886120408151
Te       -3.136400261286       47.345264902755       -6.273480438735
Te        0.000000018744       51.480159110217       -5.886120408151
Te       -3.136400255030       58.834912591265       -6.273480438735
Te        0.000000025000       62.969806798728       -5.886120408151
Te       -3.136400248773       70.324560279776       -6.273480438735
Te        0.000000037529       74.459454912355       -5.886120408151
Te       -3.136400242517       81.814207968286       -6.273480438735
Te        0.000000043785       85.949102600865       -5.886120408151
Te       -3.136400236261       93.303855656796       -6.273480438735
Te        0.000000050041       97.438750289376       -5.886120408151
Te       -3.136400230005      104.793503345307       -6.273480438735
Te        0.000000056298      108.928397977886       -5.886120408151
Te       -3.136400223749      116.283151033817       -6.273480438735
Te        0.000000062554      120.418045666396       -5.886120408151
Te       -3.136400217493      127.772798722327       -6.273480438735
Te        0.000000068810      131.907693354907       -5.886120408151
Te       -3.136400211236      139.262446410838       -6.273480438735
Te        0.000000075066      143.397341043417       -5.886120408151
Te       -3.136400204980      150.752094099348       -6.273480438735
Te        0.000000081322      154.886988731927       -5.886120408151
Te       -3.136400198724      162.241741787859       -6.273480438735
Te       -0.000000075514      166.376636420438       -5.886120408151
Te       -3.136400192468      173.731389476369       -6.273480438735
Te       -0.000000069258      177.866284108948       -5.886120408151
Te       -3.136400186212      185.221037164879       -6.273480438735
Te       -0.000000063002      189.355931797458       -5.886120408151
Te       -3.136400179956      196.710684853390       -6.273480438735
Te       -0.000000056746      200.845579485969       -5.886120408151
Te       -3.136400173699      208.200332541900       -6.273480438735
Te       -0.000000050490      212.335227174479       -5.886120408151
Te        3.136400280333     -205.426984669590       -6.273480438735
Te        6.272800403543     -201.292090037010       -5.886120408151
Te        3.136400286589     -193.937336981079       -6.273480438735
Te        6.272800409799     -189.802442348500       -5.886120408151
Te        3.136400292845     -182.447689292569       -6.273480438735
Te        6.272800416055     -178.312794659990       -5.886120408151
Te        3.136400136009     -170.958041604059       -6.273480438735
Te        6.272800422311     -166.823146971479       -5.886120408151
Te        3.136400142265     -159.468393915548       -6.273480438735
Te        6.272800428567     -155.333499282969       -5.886120408151
Te        3.136400154794     -147.978745801921       -6.273480438735
Te        6.272800434824     -143.843851594459       -5.886120408151
Te        3.136400161050     -136.489098113411       -6.273480438735
Te        6.272800441080     -132.354203905948       -5.886120408151
Te        3.136400167306     -124.999450424900       -6.273480438735
Te        6.272800447336     -120.864556217438       -5.886120408151
Te        3.136400173562     -113.509802736390       -6.273480438735
Te        6.272800453592     -109.374908528928       -5.886120408151
Te        3.136400179819     -102.020155047880       -6.273480438735
Te        6.272800459848      -97.885260840417       -5.886120408151
Te        3.136400186075      -90.530507359369       -6.273480438735
Te        6.272800466104      -86.395613151907       -5.886120408151
Te        3.136400192331      -79.040859670859       -6.273480438735
Te        6.272800472361      -74.905965463397       -5.886120408151
Te        3.136400198587      -67.551211982349       -6.273480438735
Te        6.272800478617      -63.416317774886       -5.886120408151
Te        3.136400204843      -56.061564293838       -6.273480438735
Te        6.272800484873      -51.926670086376       -5.886120408151
Te        3.136400211099      -44.571916605328       -6.273480438735
Te        6.272800491129      -40.437022397866       -5.886120408151
Te        3.136400217356      -33.082268916818       -6.273480438735
Te        6.272800497385      -28.947374709355       -5.886120408151
Te        3.136400223612      -21.592621228307       -6.273480438735
Te        6.272800503641      -17.457727020845       -5.886120408151
Te        3.136400229868      -10.102973539797       -6.273480438735
Te        6.272800509898       -5.968079332334       -5.886120408151
Te        3.136400236124        1.386674148714       -6.273480438735
Te        6.272800353061        5.521568356176       -5.886120408151
Te        3.136400242380       12.876321837224       -6.273480438735
Te        6.272800359317       17.011216044686       -5.886120408151
Te        3.136400248636       24.365969525734       -6.273480438735
Te        6.272800365573       28.500863733197       -5.886120408151
Te        3.136400254893       35.855617214245       -6.273480438735
Te        6.272800371829       39.990511421707       -5.886120408151
Te        3.136400261149       47.345264902755       -6.273480438735
Te        6.272800378086       51.480159110217       -5.886120408151
Te        3.136400267405       58.834912591265       -6.273480438735
Te        6.272800384342       62.969806798728       -5.886120408151
Te        3.136400273661       70.324560279776       -6.273480438735
Te        6.272800396871       74.459454912355       -5.886120408151
Te        3.136400279917       81.814207968286       -6.273480438735
Te        6.272800403127       85.949102600865       -5.886120408151
Te        3.136400286173       93.303855656796       -6.273480438735
Te        6.272800409383       97.438750289376       -5.886120408151
Te        3.136400292430      104.793503345307       -6.273480438735
Te        6.272800415639      108.928397977886       -5.886120408151
Te        3.136400135593      116.283151033817       -6.273480438735
Te        6.272800421895      120.418045666396       -5.886120408151
Te        3.136400141849      127.772798722327       -6.273480438735
Te        6.272800428152      131.907693354907       -5.886120408151
Te        3.136400148105      139.262446410838       -6.273480438735
Te        6.272800434408      143.397341043417       -5.886120408151
Te        3.136400154361      150.752094099348       -6.273480438735
Te        6.272800440664      154.886988731927       -5.886120408151
Te        3.136400160618      162.241741787859       -6.273480438735
Te        6.272800446920      166.376636420438       -5.886120408151
Te        3.136400166874      173.731389476369       -6.273480438735
Te        6.272800453176      177.866284108948       -5.886120408151
Te        3.136400173130      185.221037164879       -6.273480438735
Te        6.272800459432      189.355931797458       -5.886120408151
Te        3.136400179386      196.710684853390       -6.273480438735
Te        6.272800465689      200.845579485969       -5.886120408151
Te        3.136400185642      208.200332541900       -6.273480438735
Te        6.272800471945      212.335227174479       -5.886120408151
Te        9.409200639675     -205.426984669590       -6.273480438735
Te       12.545600925977     -201.292090037010       -5.886120408151
Te        9.409200645931     -193.937336981079       -6.273480438735
Te       12.545600932234     -189.802442348500       -5.886120408151
Te        9.409200652187     -182.447689292569       -6.273480438735
Te       12.545600938490     -178.312794659990       -5.886120408151
Te        9.409200658443     -170.958041604059       -6.273480438735
Te       12.545600944746     -166.823146971479       -5.886120408151
Te        9.409200664700     -159.468393915548       -6.273480438735
Te       12.545600951002     -155.333499282969       -5.886120408151
Te        9.409200677228     -147.978745801921       -6.273480438735
Te       12.545600794165     -143.843851594459       -5.886120408151
Te        9.409200683485     -136.489098113411       -6.273480438735
Te       12.545600800422     -132.354203905948       -5.886120408151
Te        9.409200689741     -124.999450424900       -6.273480438735
Te       12.545600806678     -120.864556217438       -5.886120408151
Te        9.409200695997     -113.509802736390       -6.273480438735
Te       12.545600812934     -109.374908528928       -5.886120408151
Te        9.409200702253     -102.020155047880       -6.273480438735
Te       12.545600819190      -97.885260840417       -5.886120408151
Te        9.409200708509      -90.530507359369       -6.273480438735
Te       12.545600825446      -86.395613151907       -5.886120408151
Te        9.409200714766      -79.040859670859       -6.273480438735
Te       12.545600831702      -74.905965463397       -5.886120408151
Te        9.409200721022      -67.551211982349       -6.273480438735
Te       12.545600837959      -63.416317774886       -5.886120408151
Te        9.409200727278      -56.061564293838       -6.273480438735
Te       12.545600844215      -51.926670086376       -5.886120408151
Te        9.409200733534      -44.571916605328       -6.273480438735
Te       12.545600850471      -40.437022397866       -5.886120408151
Te        9.409200576697      -33.082268916818       -6.273480438735
Te       12.545600856727      -28.947374709355       -5.886120408151
Te        9.409200582954      -21.592621228307       -6.273480438735
Te       12.545600862983      -17.457727020845       -5.886120408151
Te        9.409200589210      -10.102973539797       -6.273480438735
Te       12.545600869239       -5.968079332334       -5.886120408151
Te        9.409200595466        1.386674148714       -6.273480438735
Te       12.545600875496        5.521568356176       -5.886120408151
Te        9.409200601722       12.876321837224       -6.273480438735
Te       12.545600881752       17.011216044686       -5.886120408151
Te        9.409200607978       24.365969525734       -6.273480438735
Te       12.545600888008       28.500863733197       -5.886120408151
Te        9.409200614234       35.855617214245       -6.273480438735
Te       12.545600894264       39.990511421707       -5.886120408151
Te        9.409200620491       47.345264902755       -6.273480438735
Te       12.545600900520       51.480159110217       -5.886120408151
Te        9.409200626747       58.834912591265       -6.273480438735
Te       12.545600906776       62.969806798728       -5.886120408151
Te        9.409200633003       70.324560279776       -6.273480438735
Te       12.545600919305       74.459454912355       -5.886120408151
Te        9.409200639259       81.814207968286       -6.273480438735
Te       12.545600925562       85.949102600865       -5.886120408151
Te        9.409200645515       93.303855656796       -6.273480438735
Te       12.545600931818       97.438750289376       -5.886120408151
Te        9.409200651771      104.793503345307       -6.273480438735
Te       12.545600938074      108.928397977886       -5.886120408151
Te        9.409200658028      116.283151033817       -6.273480438735
Te       12.545600944330      120.418045666396       -5.886120408151
Te        9.409200664284      127.772798722327       -6.273480438735
Te       12.545600950586      131.907693354907       -5.886120408151
Te        9.409200670540      139.262446410838       -6.273480438735
Te       12.545600793750      143.397341043417       -5.886120408151
Te        9.409200676796      150.752094099348       -6.273480438735
Te       12.545600800006      154.886988731927       -5.886120408151
Te        9.409200683052      162.241741787859       -6.273480438735
Te       12.545600806262      166.376636420438       -5.886120408151
Te        9.409200689308      173.731389476369       -6.273480438735
Te       12.545600812518      177.866284108948       -5.886120408151
Te        9.409200695565      185.221037164879       -6.273480438735
Te       12.545600818774      189.355931797458       -5.886120408151
Te        9.409200701821      196.710684853390       -6.273480438735
Te       12.545600825030      200.845579485969       -5.886120408151
Te        9.409200708077      208.200332541900       -6.273480438735
Te       12.545600831287      212.335227174479       -5.886120408151
Te       15.682001162109     -205.426984669590       -6.273480438735
Te       18.818401285319     -201.292090037010       -5.886120408151
Te       15.682001005273     -193.937336981079       -6.273480438735
Te       18.818401291575     -189.802442348500       -5.886120408151
Te       15.682001011529     -182.447689292569       -6.273480438735
Te       18.818401297831     -178.312794659990       -5.886120408151
Te       15.682001017785     -170.958041604059       -6.273480438735
Te       18.818401304088     -166.823146971479       -5.886120408151
Te       15.682001024041     -159.468393915548       -6.273480438735
Te       18.818401310344     -155.333499282969       -5.886120408151
Te       15.682001036570     -147.978745801921       -6.273480438735
Te       18.818401316600     -143.843851594459       -5.886120408151
Te       15.682001042826     -136.489098113411       -6.273480438735
Te       18.818401322856     -132.354203905948       -5.886120408151
Te       15.682001049083     -124.999450424900       -6.273480438735
Te       18.818401329112     -120.864556217438       -5.886120408151
Te       15.682001055339     -113.509802736390       -6.273480438735
Te       18.818401335368     -109.374908528928       -5.886120408151
Te       15.682001061595     -102.020155047880       -6.273480438735
Te       18.818401341625      -97.885260840417       -5.886120408151
Te       15.682001067851      -90.530507359369       -6.273480438735
Te       18.818401347881      -86.395613151907       -5.886120408151
Te       15.682001074107      -79.040859670859       -6.273480438735
Te       18.818401354137      -74.905965463397       -5.886120408151
Te       15.682001080363      -67.551211982349       -6.273480438735
Te       18.818401360393      -63.416317774886       -5.886120408151
Te       15.682001086620      -56.061564293838       -6.273480438735
Te       18.818401366649      -51.926670086376       -5.886120408151
Te       15.682001092876      -44.571916605328       -6.273480438735
Te       18.818401372905      -40.437022397866       -5.886120408151
Te       15.682001099132      -33.082268916818       -6.273480438735
Te       18.818401379162      -28.947374709355       -5.886120408151
Te       15.682001105388      -21.592621228307       -6.273480438735
Te       18.818401222325      -17.457727020845       -5.886120408151
Te       15.682001111644      -10.102973539797       -6.273480438735
Te       18.818401228581       -5.968079332334       -5.886120408151
Te       15.682001117900        1.386674148714       -6.273480438735
Te       18.818401234837        5.521568356176       -5.886120408151
Te       15.682001124157       12.876321837224       -6.273480438735
Te       18.818401241094       17.011216044686       -5.886120408151
Te       15.682001130413       24.365969525734       -6.273480438735
Te       18.818401247350       28.500863733197       -5.886120408151
Te       15.682001136669       35.855617214245       -6.273480438735
Te       18.818401253606       39.990511421707       -5.886120408151
Te       15.682001142925       47.345264902755       -6.273480438735
Te       18.818401259862       51.480159110217       -5.886120408151
Te       15.682001149181       58.834912591265       -6.273480438735
Te       18.818401266118       62.969806798728       -5.886120408151
Te       15.682001155437       70.324560279776       -6.273480438735
Te       18.818401278647       74.459454912355       -5.886120408151
Te       15.682001161694       81.814207968286       -6.273480438735
Te       18.818401284903       85.949102600865       -5.886120408151
Te       15.682001004857       93.303855656796       -6.273480438735
Te       18.818401291160       97.438750289376       -5.886120408151
Te       15.682001011113      104.793503345307       -6.273480438735
Te       18.818401297416      108.928397977886       -5.886120408151
Te       15.682001017369      116.283151033817       -6.273480438735
Te       18.818401303672      120.418045666396       -5.886120408151
Te       15.682001023625      127.772798722327       -6.273480438735
Te       18.818401309928      131.907693354907       -5.886120408151
Te       15.682001029882      139.262446410838       -6.273480438735
Te       18.818401316184      143.397341043417       -5.886120408151
Te       15.682001036138      150.752094099348       -6.273480438735
Te       18.818401322440      154.886988731927       -5.886120408151
Te       15.682001042394      162.241741787859       -6.273480438735
Te       18.818401328697      166.376636420438       -5.886120408151
Te       15.682001048650      173.731389476369       -6.273480438735
Te       18.818401334953      177.866284108948       -5.886120408151
Te       15.682001054906      185.221037164879       -6.273480438735
Te       18.818401341209      189.355931797458       -5.886120408151
Te       15.682001061162      196.710684853390       -6.273480438735
Te       18.818401347465      200.845579485969       -5.886120408151
Te       15.682001067419      208.200332541900       -6.273480438735
Te       18.818401353721      212.335227174479       -5.886120408151
Te       21.954801521451     -205.426984669590       -6.273480438735
Te       25.091201807754     -201.292090037010       -5.886120408151
Te       21.954801527707     -193.937336981079       -6.273480438735
Te       25.091201814010     -189.802442348500       -5.886120408151
Te       21.954801533964     -182.447689292569       -6.273480438735
Te       25.091201820266     -178.312794659990       -5.886120408151
Te       21.954801540220     -170.958041604059       -6.273480438735
Te       25.091201663429     -166.823146971479       -5.886120408151
Te       21.954801546476     -159.468393915548       -6.273480438735
Te       25.091201669686     -155.333499282969       -5.886120408151
Te       21.954801559005     -147.978745801921       -6.273480438735
Te       25.091201675942     -143.843851594459       -5.886120408151
Te       21.954801565261     -136.489098113411       -6.273480438735
Te       25.091201682198     -132.354203905948       -5.886120408151
Te       21.954801571517     -124.999450424900       -6.273480438735
Te       25.091201688454     -120.864556217438       -5.886120408151
Te       21.954801577773     -113.509802736390       -6.273480438735
Te       25.091201694710     -109.374908528928       -5.886120408151
Te       21.954801584030     -102.020155047880       -6.273480438735
Te       25.091201700966      -97.885260840417       -5.886120408151
Te       21.954801590286      -90.530507359369       -6.273480438735
Te       25.091201707223      -86.395613151907       -5.886120408151
Te       21.954801596542      -79.040859670859       -6.273480438735
Te       25.091201713479      -74.905965463397       -5.886120408151
Te       21.954801602798      -67.551211982349       -6.273480438735
Te       25.091201719735      -63.416317774886       -5.886120408151
Te       21.954801445961      -56.061564293838       -6.273480438735
Te       25.091201725991      -51.926670086376       -5.886120408151
Te       21.954801452218      -44.571916605328       -6.273480438735
Te       25.091201732247      -40.437022397866       -5.886120408151
Te       21.954801458474      -33.082268916818       -6.273480438735
Te       25.091201738503      -28.947374709355       -5.886120408151
Te       21.954801464730      -21.592621228307       -6.273480438735
Te       25.091201744760      -17.457727020845       -5.886120408151
Te       21.954801470986      -10.102973539797       -6.273480438735
Te       25.091201751016       -5.968079332334       -5.886120408151
Te       21.954801477242        1.386674148714       -6.273480438735
Te       25.091201757272        5.521568356176       -5.886120408151
Te       21.954801483498       12.876321837224       -6.273480438735
Te       25.091201763528       17.011216044686       -5.886120408151
Te       21.954801489755       24.365969525734       -6.273480438735
Te       25.091201769784       28.500863733197       -5.886120408151
Te       21.954801496011       35.855617214245       -6.273480438735
Te       25.091201776040       39.990511421707       -5.886120408151
Te       21.954801502267       47.345264902755       -6.273480438735
Te       25.091201782297       51.480159110217       -5.886120408151
Te       21.954801508523       58.834912591265       -6.273480438735
Te       25.091201788553       62.969806798728       -5.886120408151
Te       21.954801514779       70.324560279776       -6.273480438735
Te       25.091201801082       74.459454912355       -5.886120408151
Te       21.954801521035       81.814207968286       -6.273480438735
Te       25.091201807338       85.949102600865       -5.886120408151
Te       21.954801527292       93.303855656796       -6.273480438735
Te       25.091201813594       97.438750289376       -5.886120408151
Te       21.954801533548      104.793503345307       -6.273480438735
Te       25.091201819850      108.928397977886       -5.886120408151
Te       21.954801539804      116.283151033817       -6.273480438735
Te       25.091201663014      120.418045666396       -5.886120408151
Te       21.954801546060      127.772798722327       -6.273480438735
Te       25.091201669270      131.907693354907       -5.886120408151
Te       21.954801552316      139.262446410838       -6.273480438735
Te       25.091201675526      143.397341043417       -5.886120408151
Te       21.954801558572      150.752094099348       -6.273480438735
Te       25.091201681782      154.886988731927       -5.886120408151
Te       21.954801564829      162.241741787859       -6.273480438735
Te       25.091201688038      166.376636420438       -5.886120408151
Te       21.954801571085      173.731389476369       -6.273480438735
Te       25.091201694294      177.866284108948       -5.886120408151
Te       21.954801577341      185.221037164879       -6.273480438735
Te       25.091201700551      189.355931797458       -5.886120408151
Te       21.954801583597      196.710684853390       -6.273480438735
Te       25.091201706807      200.845579485969       -5.886120408151
Te       21.954801589853      208.200332541900       -6.273480438735
Te       25.091201713063      212.335227174479       -5.886120408151
Te       28.227601880793     -205.426984669590       -6.273480438735
Te       31.364002167096     -201.292090037010       -5.886120408151
Te       28.227601887049     -193.937336981079       -6.273480438735
Te       31.364002173352     -189.802442348500       -5.886120408151
Te       28.227601893305     -182.447689292569       -6.273480438735
Te       31.364002179608     -178.312794659990       -5.886120408151
Te       28.227601899562     -170.958041604059       -6.273480438735
Te       31.364002185864     -166.823146971479       -5.886120408151
Te       28.227601905818     -159.468393915548       -6.273480438735
Te       31.364002192120     -155.333499282969       -5.886120408151
Te       28.227601918347     -147.978745801921       -6.273480438735
Te       31.364002198376     -143.843851594459       -5.886120408151
Te       28.227601924603     -136.489098113411       -6.273480438735
Te       31.364002204633     -132.354203905948       -5.886120408151
Te       28.227601930859     -124.999450424900       -6.273480438735
Te       31.364002210889     -120.864556217438       -5.886120408151
Te       28.227601937115     -113.509802736390       -6.273480438735
Te       31.364002217145     -109.374908528928       -5.886120408151
Te       28.227601943371     -102.020155047880       -6.273480438735
Te       31.364002223401      -97.885260840417       -5.886120408151
Te       28.227601949627      -90.530507359369       -6.273480438735
Te       31.364002229657      -86.395613151907       -5.886120408151
Te       28.227601955884      -79.040859670859       -6.273480438735
Te       31.364002235913      -74.905965463397       -5.886120408151
Te       28.227601962140      -67.551211982349       -6.273480438735
Te       31.364002242170      -63.416317774886       -5.886120408151
Te       28.227601968396      -56.061564293838       -6.273480438735
Te       31.364002248426      -51.926670086376       -5.886120408151
Te       28.227601974652      -44.571916605328       -6.273480438735
Te       31.364002091589      -40.437022397866       -5.886120408151
Te       28.227601980908      -33.082268916818       -6.273480438735
Te       31.364002097845      -28.947374709355       -5.886120408151
Te       28.227601987164      -21.592621228307       -6.273480438735
Te       31.364002104101      -17.457727020845       -5.886120408151
Te       28.227601993421      -10.102973539797       -6.273480438735
Te       31.364002110358       -5.968079332334       -5.886120408151
Te       28.227601999677        1.386674148714       -6.273480438735
Te       31.364002116614        5.521568356176       -5.886120408151
Te       28.227602005933       12.876321837224       -6.273480438735
Te       31.364002122870       17.011216044686       -5.886120408151
Te       28.227602012189       24.365969525734       -6.273480438735
Te       31.364002129126       28.500863733197       -5.886120408151
Te       28.227602018445       35.855617214245       -6.273480438735
Te       31.364002135382       39.990511421707       -5.886120408151
Te       28.227602024701       47.345264902755       -6.273480438735
Te       31.364002141638       51.480159110217       -5.886120408151
Te       28.227602030958       58.834912591265       -6.273480438735
Te       31.364002147895       62.969806798728       -5.886120408151
Te       28.227601874121       70.324560279776       -6.273480438735
Te       31.364002160424       74.459454912355       -5.886120408151
Te       28.227601880377       81.814207968286       -6.273480438735
Te       31.364002166680       85.949102600865       -5.886120408151
Te       28.227601886633       93.303855656796       -6.273480438735
Te       31.364002172936       97.438750289376       -5.886120408151
Te       28.227601892890      104.793503345307       -6.273480438735
Te       31.364002179192      108.928397977886       -5.886120408151
Te       28.227601899146      116.283151033817       -6.273480438735
Te       31.364002185448      120.418045666396       -5.886120408151
Te       28.227601905402      127.772798722327       -6.273480438735
Te       31.364002191704      131.907693354907       -5.886120408151
Te       28.227601911658      139.262446410838       -6.273480438735
Te       31.364002197961      143.397341043417       -5.886120408151
Te       28.227601917914      150.752094099348       -6.273480438735
Te       31.364002204217      154.886988731927       -5.886120408151
Te       28.227601924170      162.241741787859       -6.273480438735
Te       31.364002210473      166.376636420438       -5.886120408151
Te       28.227601930427      173.731389476369       -6.273480438735
Te       31.364002216729      177.866284108948       -5.886120408151
Te       28.227601936683      185.221037164879       -6.273480438735
Te       31.364002222985      189.355931797458       -5.886120408151
Te       28.227601942939      196.710684853390       -6.273480438735
Te       31.364002229241      200.845579485969       -5.886120408151
Te       28.227601949195      208.200332541900       -6.273480438735
Te       31.364002235498      212.335227174479       -5.886120408151
Te       34.500402403228     -205.426984669590       -6.273480438735
Te       37.636802689530     -201.292090037010       -5.886120408151
Te       34.500402409484     -193.937336981079       -6.273480438735
Te       37.636802532693     -189.802442348500       -5.886120408151
Te       34.500402415740     -182.447689292569       -6.273480438735
Te       37.636802538950     -178.312794659990       -5.886120408151
Te       34.500402421996     -170.958041604059       -6.273480438735
Te       37.636802545206     -166.823146971479       -5.886120408151
Te       34.500402428252     -159.468393915548       -6.273480438735
Te       37.636802551462     -155.333499282969       -5.886120408151
Te       34.500402440781     -147.978745801921       -6.273480438735
Te       37.636802557718     -143.843851594459       -5.886120408151
Te       34.500402447037     -136.489098113411       -6.273480438735
Te       37.636802563974     -132.354203905948       -5.886120408151
Te       34.500402453294     -124.999450424900       -6.273480438735
Te       37.636802570230     -120.864556217438       -5.886120408151
Te       34.500402459550     -113.509802736390       -6.273480438735
Te       37.636802576487     -109.374908528928       -5.886120408151
Te       34.500402465806     -102.020155047880       -6.273480438735
Te       37.636802582743      -97.885260840417       -5.886120408151
Te       34.500402472062      -90.530507359369       -6.273480438735
Te       37.636802588999      -86.395613151907       -5.886120408151
Te       34.500402315225      -79.040859670859       -6.273480438735
Te       37.636802595255      -74.905965463397       -5.886120408151
Te       34.500402321482      -67.551211982349       -6.273480438735
Te       37.636802601511      -63.416317774886       -5.886120408151
Te       34.500402327738      -56.061564293838       -6.273480438735
Te       37.636802607767      -51.926670086376       -5.886120408151
Te       34.500402333994      -44.571916605328       -6.273480438735
Te       37.636802614024      -40.437022397866       -5.886120408151
Te       34.500402340250      -33.082268916818       -6.273480438735
Te       37.636802620280      -28.947374709355       -5.886120408151
Te       34.500402346506      -21.592621228307       -6.273480438735
Te       37.636802626536      -17.457727020845       -5.886120408151
Te       34.500402352762      -10.102973539797       -6.273480438735
Te       37.636802632792       -5.968079332334       -5.886120408151
Te       34.500402359019        1.386674148714       -6.273480438735
Te       37.636802639048        5.521568356176       -5.886120408151
Te       34.500402365275       12.876321837224       -6.273480438735
Te       37.636802645304       17.011216044686       -5.886120408151
Te       34.500402371531       24.365969525734       -6.273480438735
Te       37.636802651561       28.500863733197       -5.886120408151
Te       34.500402377787       35.855617214245       -6.273480438735
Te       37.636802657817       39.990511421707       -5.886120408151
Te       34.500402384043       47.345264902755       -6.273480438735
Te       37.636802664073       51.480159110217       -5.886120408151
Te       34.500402390299       58.834912591265       -6.273480438735
Te       37.636802670329       62.969806798728       -5.886120408151
Te       34.500402396556       70.324560279776       -6.273480438735
Te       37.636802682858       74.459454912355       -5.886120408151
Te       34.500402402812       81.814207968286       -6.273480438735
Te       37.636802689114       85.949102600865       -5.886120408151
Te       34.500402409068       93.303855656796       -6.273480438735
Te       37.636802532278       97.438750289376       -5.886120408151
Te       34.500402415324      104.793503345307       -6.273480438735
Te       37.636802538534      108.928397977886       -5.886120408151
Te       34.500402421580      116.283151033817       -6.273480438735
Te       37.636802544790      120.418045666396       -5.886120408151
Te       34.500402427836      127.772798722327       -6.273480438735
Te       37.636802551046      131.907693354907       -5.886120408151
Te       34.500402434093      139.262446410838       -6.273480438735
Te       37.636802557302      143.397341043417       -5.886120408151
Te       34.500402440349      150.752094099348       -6.273480438735
Te       37.636802563558      154.886988731927       -5.886120408151
Te       34.500402446605      162.241741787859       -6.273480438735
Te       37.636802569815      166.376636420438       -5.886120408151
Te       34.500402452861      173.731389476369       -6.273480438735
Te       37.636802576071      177.866284108948       -5.886120408151
Te       34.500402459117      185.221037164879       -6.273480438735
Te       37.636802582327      189.355931797458       -5.886120408151
Te       34.500402465373      196.710684853390       -6.273480438735
Te       37.636802588583      200.845579485969       -5.886120408151
Te       34.500402308537      208.200332541900       -6.273480438735
Te       37.636802594839      212.335227174479       -5.886120408151
Te       40.773202762569     -205.426984669590       -6.273480438735
Te       43.909603048872     -201.292090037010       -5.886120408151
Te       40.773202768826     -193.937336981079       -6.273480438735
Te       43.909603055128     -189.802442348500       -5.886120408151
Te       40.773202775082     -182.447689292569       -6.273480438735
Te       43.909603061384     -178.312794659990       -5.886120408151
Te       40.773202781338     -170.958041604059       -6.273480438735
Te       43.909603067640     -166.823146971479       -5.886120408151
Te       40.773202787594     -159.468393915548       -6.273480438735
Te       43.909603073897     -155.333499282969       -5.886120408151
Te       40.773202800123     -147.978745801921       -6.273480438735
Te       43.909603080153     -143.843851594459       -5.886120408151
Te       40.773202806379     -136.489098113411       -6.273480438735
Te       43.909603086409     -132.354203905948       -5.886120408151
Te       40.773202812635     -124.999450424900       -6.273480438735
Te       43.909603092665     -120.864556217438       -5.886120408151
Te       40.773202818892     -113.509802736390       -6.273480438735
Te       43.909603098921     -109.374908528928       -5.886120408151
Te       40.773202825148     -102.020155047880       -6.273480438735
Te       43.909603105177      -97.885260840417       -5.886120408151
Te       40.773202831404      -90.530507359369       -6.273480438735
Te       43.909603111434      -86.395613151907       -5.886120408151
Te       40.773202837660      -79.040859670859       -6.273480438735
Te       43.909603117690      -74.905965463397       -5.886120408151
Te       40.773202843916      -67.551211982349       -6.273480438735
Te       43.909602960853      -63.416317774886       -5.886120408151
Te       40.773202850172      -56.061564293838       -6.273480438735
Te       43.909602967109      -51.926670086376       -5.886120408151
Te       40.773202856429      -44.571916605328       -6.273480438735
Te       43.909602973365      -40.437022397866       -5.886120408151
Te       40.773202862685      -33.082268916818       -6.273480438735
Te       43.909602979622      -28.947374709355       -5.886120408151
Te       40.773202868941      -21.592621228307       -6.273480438735
Te       43.909602985878      -17.457727020845       -5.886120408151
Te       40.773202875197      -10.102973539797       -6.273480438735
Te       43.909602992134       -5.968079332334       -5.886120408151
Te       40.773202881453        1.386674148714       -6.273480438735
Te       43.909602998390        5.521568356176       -5.886120408151
Te       40.773202887709       12.876321837224       -6.273480438735
Te       43.909603004646       17.011216044686       -5.886120408151
Te       40.773202893966       24.365969525734       -6.273480438735
Te       43.909603010902       28.500863733197       -5.886120408151
Te       40.773202900222       35.855617214245       -6.273480438735
Te       43.909603017159       39.990511421707       -5.886120408151
Te       40.773202906478       47.345264902755       -6.273480438735
Te       43.909603023415       51.480159110217       -5.886120408151
Te       40.773202749641       58.834912591265       -6.273480438735
Te       43.909603029671       62.969806798728       -5.886120408151
Te       40.773202755897       70.324560279776       -6.273480438735
Te       43.909603042200       74.459454912355       -5.886120408151
Te       40.773202762154       81.814207968286       -6.273480438735
Te       43.909603048456       85.949102600865       -5.886120408151
Te       40.773202768410       93.303855656796       -6.273480438735
Te       43.909603054712       97.438750289376       -5.886120408151
Te       40.773202774666      104.793503345307       -6.273480438735
Te       43.909603060968      108.928397977886       -5.886120408151
Te       40.773202780922      116.283151033817       -6.273480438735
Te       43.909603067225      120.418045666396       -5.886120408151
Te       40.773202787178      127.772798722327       -6.273480438735
Te       43.909603073481      131.907693354907       -5.886120408151
Te       40.773202793434      139.262446410838       -6.273480438735
Te       43.909603079737      143.397341043417       -5.886120408151
Te       40.773202799691      150.752094099348       -6.273480438735
Te       43.909603085993      154.886988731927       -5.886120408151
Te       40.773202805947      162.241741787859       -6.273480438735
Te       43.909603092249      166.376636420438       -5.886120408151
Te       40.773202812203      173.731389476369       -6.273480438735
Te       43.909603098505      177.866284108948       -5.886120408151
Te       40.773202818459      185.221037164879       -6.273480438735
Te       43.909603104762      189.355931797458       -5.886120408151
Te       40.773202824715      196.710684853390       -6.273480438735
Te       43.909603111018      200.845579485969       -5.886120408151
Te       40.773202830971      208.200332541900       -6.273480438735
Te       43.909603117274      212.335227174479       -5.886120408151
Te       47.046003285004     -205.426984669590       -6.273480438735
Te       50.182403408214     -201.292090037010       -5.886120408151
Te       47.046003291260     -193.937336981079       -6.273480438735
Te       50.182403414470     -189.802442348500       -5.886120408151
Te       47.046003297516     -182.447689292569       -6.273480438735
Te       50.182403420726     -178.312794659990       -5.886120408151
Te       47.046003303772     -170.958041604059       -6.273480438735
Te       50.182403426982     -166.823146971479       -5.886120408151
Te       47.046003310029     -159.468393915548       -6.273480438735
Te       50.182403433238     -155.333499282969       -5.886120408151
Te       47.046003322558     -147.978745801921       -6.273480438735
Te       50.182403439495     -143.843851594459       -5.886120408151
Te       47.046003328814     -136.489098113411       -6.273480438735
Te       50.182403445751     -132.354203905948       -5.886120408151
Te       47.046003335070     -124.999450424900       -6.273480438735
Te       50.182403452007     -120.864556217438       -5.886120408151
Te       47.046003341326     -113.509802736390       -6.273480438735
Te       50.182403458263     -109.374908528928       -5.886120408151
Te       47.046003184489     -102.020155047880       -6.273480438735
Te       50.182403464519      -97.885260840417       -5.886120408151
Te       47.046003190746      -90.530507359369       -6.273480438735
Te       50.182403470775      -86.395613151907       -5.886120408151
Te       47.046003197002      -79.040859670859       -6.273480438735
Te       50.182403477032      -74.905965463397       -5.886120408151
Te       47.046003203258      -67.551211982349       -6.273480438735
Te       50.182403483288      -63.416317774886       -5.886120408151
Te       47.046003209514      -56.061564293838       -6.273480438735
Te       50.182403489544      -51.926670086376       -5.886120408151
Te       47.046003215770      -44.571916605328       -6.273480438735
Te       50.182403495800      -40.437022397866       -5.886120408151
Te       47.046003222026      -33.082268916818       -6.273480438735
Te       50.182403502056      -28.947374709355       -5.886120408151
Te       47.046003228283      -21.592621228307       -6.273480438735
Te       50.182403508312      -17.457727020845       -5.886120408151
Te       47.046003234539      -10.102973539797       -6.273480438735
Te       50.182403514569       -5.968079332334       -5.886120408151
Te       47.046003240795        1.386674148714       -6.273480438735
Te       50.182403520825        5.521568356176       -5.886120408151
Te       47.046003247051       12.876321837224       -6.273480438735
Te       50.182403527081       17.011216044686       -5.886120408151
Te       47.046003253307       24.365969525734       -6.273480438735
Te       50.182403533337       28.500863733197       -5.886120408151
Te       47.046003259563       35.855617214245       -6.273480438735
Te       50.182403539593       39.990511421707       -5.886120408151
Te       47.046003265820       47.345264902755       -6.273480438735
Te       50.182403545849       51.480159110217       -5.886120408151
Te       47.046003272076       58.834912591265       -6.273480438735
Te       50.182403552106       62.969806798728       -5.886120408151
Te       47.046003278332       70.324560279776       -6.273480438735
Te       50.182403401542       74.459454912355       -5.886120408151
Te       47.046003284588       81.814207968286       -6.273480438735
Te       50.182403407798       85.949102600865       -5.886120408151
Te       47.046003290844       93.303855656796       -6.273480438735
Te       50.182403414054       97.438750289376       -5.886120408151
Te       47.046003297100      104.793503345307       -6.273480438735
Te       50.182403420310      108.928397977886       -5.886120408151
Te       47.046003303357      116.283151033817       -6.273480438735
Te       50.182403426566      120.418045666396       -5.886120408151
Te       47.046003309613      127.772798722327       -6.273480438735
Te       50.182403432823      131.907693354907       -5.886120408151
Te       47.046003315869      139.262446410838       -6.273480438735
Te       50.182403439079      143.397341043417       -5.886120408151
Te       47.046003322125      150.752094099348       -6.273480438735
Te       50.182403445335      154.886988731927       -5.886120408151
Te       47.046003328381      162.241741787859       -6.273480438735
Te       50.182403451591      166.376636420438       -5.886120408151
Te       47.046003334637      173.731389476369       -6.273480438735
Te       50.182403457847      177.866284108948       -5.886120408151
Te       47.046003177801      185.221037164879       -6.273480438735
Te       50.182403464103      189.355931797458       -5.886120408151
Te       47.046003184057      196.710684853390       -6.273480438735
Te       50.182403470360      200.845579485969       -5.886120408151
Te       47.046003190313      208.200332541900       -6.273480438735
Te       50.182403476616      212.335227174479       -5.886120408151
Te       53.318803644346     -205.426984669590       -6.273480438735
Te       56.455203930648     -201.292090037010       -5.886120408151
Te       53.318803650602     -193.937336981079       -6.273480438735
Te       56.455203936904     -189.802442348500       -5.886120408151
Te       53.318803656858     -182.447689292569       -6.273480438735
Te       56.455203943161     -178.312794659990       -5.886120408151
Te       53.318803663114     -170.958041604059       -6.273480438735
Te       56.455203949417     -166.823146971479       -5.886120408151
Te       53.318803669370     -159.468393915548       -6.273480438735
Te       56.455203955673     -155.333499282969       -5.886120408151
Te       53.318803681899     -147.978745801921       -6.273480438735
Te       56.455203961929     -143.843851594459       -5.886120408151
Te       53.318803688156     -136.489098113411       -6.273480438735
Te       56.455203968185     -132.354203905948       -5.886120408151
Te       53.318803694412     -124.999450424900       -6.273480438735
Te       56.455203974441     -120.864556217438       -5.886120408151
Te       53.318803700668     -113.509802736390       -6.273480438735
Te       56.455203980698     -109.374908528928       -5.886120408151
Te       53.318803706924     -102.020155047880       -6.273480438735
Te       56.455203986954      -97.885260840417       -5.886120408151
Te       53.318803713180      -90.530507359369       -6.273480438735
Te       56.455203830117      -86.395613151907       -5.886120408151
Te       53.318803719436      -79.040859670859       -6.273480438735
Te       56.455203836373      -74.905965463397       -5.886120408151
Te       53.318803725693      -67.551211982349       -6.273480438735
Te       56.455203842629      -63.416317774886       -5.886120408151
Te       53.318803731949      -56.061564293838       -6.273480438735
Te       56.455203848886      -51.926670086376       -5.886120408151
Te       53.318803738205      -44.571916605328       -6.273480438735
Te       56.455203855142      -40.437022397866       -5.886120408151
Te       53.318803744461      -33.082268916818       -6.273480438735
Te       56.455203861398      -28.947374709355       -5.886120408151
Te       53.318803750717      -21.592621228307       -6.273480438735
Te       56.455203867654      -17.457727020845       -5.886120408151
Te       53.318803756973      -10.102973539797       -6.273480438735
Te       56.455203873910       -5.968079332334       -5.886120408151
Te       53.318803763230        1.386674148714       -6.273480438735
Te       56.455203880166        5.521568356176       -5.886120408151
Te       53.318803769486       12.876321837224       -6.273480438735
Te       56.455203886423       17.011216044686       -5.886120408151
Te       53.318803775742       24.365969525734       -6.273480438735
Te       56.455203892679       28.500863733197       -5.886120408151
Te       53.318803618905       35.855617214245       -6.273480438735
Te       56.455203898935       39.990511421707       -5.886120408151
Te       53.318803625161       47.345264902755       -6.273480438735
Te       56.455203905191       51.480159110217       -5.886120408151
Te       53.318803631418       58.834912591265       -6.273480438735
Te       56.455203911447       62.969806798728       -5.886120408151
Te       53.318803637674       70.324560279776       -6.273480438735
Te       56.455203923976       74.459454912355       -5.886120408151
Te       53.318803643930       81.814207968286       -6.273480438735
Te       56.455203930232       85.949102600865       -5.886120408151
Te       53.318803650186       93.303855656796       -6.273480438735
Te       56.455203936489       97.438750289376       -5.886120408151
Te       53.318803656442      104.793503345307       -6.273480438735
Te       56.455203942745      108.928397977886       -5.886120408151
Te       53.318803662698      116.283151033817       -6.273480438735
Te       56.455203949001      120.418045666396       -5.886120408151
Te       53.318803668955      127.772798722327       -6.273480438735
Te       56.455203955257      131.907693354907       -5.886120408151
Te       53.318803675211      139.262446410838       -6.273480438735
Te       56.455203961513      143.397341043417       -5.886120408151
Te       53.318803681467      150.752094099348       -6.273480438735
Te       56.455203967769      154.886988731927       -5.886120408151
Te       53.318803687723      162.241741787859       -6.273480438735
Te       56.455203974026      166.376636420438       -5.886120408151
Te       53.318803693979      173.731389476369       -6.273480438735
Te       56.455203980282      177.866284108948       -5.886120408151
Te       53.318803700235      185.221037164879       -6.273480438735
Te       56.455203986538      189.355931797458       -5.886120408151
Te       53.318803706492      196.710684853390       -6.273480438735
Te       56.455203992794      200.845579485969       -5.886120408151
Te       53.318803712748      208.200332541900       -6.273480438735
Te       56.455203835958      212.335227174479       -5.886120408151
Te       59.591604166780     -205.426984669590       -6.273480438735
Te       62.728004289990     -201.292090037010       -5.886120408151
Te       59.591604173037     -193.937336981079       -6.273480438735
Te       62.728004296246     -189.802442348500       -5.886120408151
Te       59.591604179293     -182.447689292569       -6.273480438735
Te       62.728004302502     -178.312794659990       -5.886120408151
Te       59.591604185549     -170.958041604059       -6.273480438735
Te       62.728004308759     -166.823146971479       -5.886120408151
Te       59.591604191805     -159.468393915548       -6.273480438735
Te       62.728004315015     -155.333499282969       -5.886120408151
Te       59.591604204334     -147.978745801921       -6.273480438735
Te       62.728004321271     -143.843851594459       -5.886120408151
Te       59.591604210590     -136.489098113411       -6.273480438735
Te       62.728004327527     -132.354203905948       -5.886120408151
Te       59.591604053753     -124.999450424900       -6.273480438735
Te       62.728004333783     -120.864556217438       -5.886120408151
Te       59.591604060010     -113.509802736390       -6.273480438735
Te       62.728004340039     -109.374908528928       -5.886120408151
Te       59.591604066266     -102.020155047880       -6.273480438735
Te       62.728004346296      -97.885260840417       -5.886120408151
Te       59.591604072522      -90.530507359369       -6.273480438735
Te       62.728004352552      -86.395613151907       -5.886120408151
Te       59.591604078778      -79.040859670859       -6.273480438735
Te       62.728004358808      -74.905965463397       -5.886120408151
Te       59.591604085034      -67.551211982349       -6.273480438735
Te       62.728004365064      -63.416317774886       -5.886120408151
Te       59.591604091291      -56.061564293838       -6.273480438735
Te       62.728004371320      -51.926670086376       -5.886120408151
Te       59.591604097547      -44.571916605328       -6.273480438735
Te       62.728004377576      -40.437022397866       -5.886120408151
Te       59.591604103803      -33.082268916818       -6.273480438735
Te       62.728004383833      -28.947374709355       -5.886120408151
Te       59.591604110059      -21.592621228307       -6.273480438735
Te       62.728004390089      -17.457727020845       -5.886120408151
Te       59.591604116315      -10.102973539797       -6.273480438735
Te       62.728004396345       -5.968079332334       -5.886120408151
Te       59.591604122571        1.386674148714       -6.273480438735
Te       62.728004402601        5.521568356176       -5.886120408151
Te       59.591604128828       12.876321837224       -6.273480438735
Te       62.728004408857       17.011216044686       -5.886120408151
Te       59.591604135084       24.365969525734       -6.273480438735
Te       62.728004415113       28.500863733197       -5.886120408151
Te       59.591604141340       35.855617214245       -6.273480438735
Te       62.728004421370       39.990511421707       -5.886120408151
Te       59.591604147596       47.345264902755       -6.273480438735
Te       62.728004264533       51.480159110217       -5.886120408151
Te       59.591604153852       58.834912591265       -6.273480438735
Te       62.728004270789       62.969806798728       -5.886120408151
Te       59.591604160108       70.324560279776       -6.273480438735
Te       62.728004283318       74.459454912355       -5.886120408151
Te       59.591604166365       81.814207968286       -6.273480438735
Te       62.728004289574       85.949102600865       -5.886120408151
Te       59.591604172621       93.303855656796       -6.273480438735
Te       62.728004295830       97.438750289376       -5.886120408151
Te       59.591604178877      104.793503345307       -6.273480438735
Te       62.728004302087      108.928397977886       -5.886120408151
Te       59.591604185133      116.283151033817       -6.273480438735
Te       62.728004308343      120.418045666396       -5.886120408151
Te       59.591604191389      127.772798722327       -6.273480438735
Te       62.728004314599      131.907693354907       -5.886120408151
Te       59.591604197645      139.262446410838       -6.273480438735
Te       62.728004320855      143.397341043417       -5.886120408151
Te       59.591604203902      150.752094099348       -6.273480438735
Te       62.728004327111      154.886988731927       -5.886120408151
Te       59.591604047065      162.241741787859       -6.273480438735
Te       62.728004333367      166.376636420438       -5.886120408151
Te       59.591604053321      173.731389476369       -6.273480438735
Te       62.728004339624      177.866284108948       -5.886120408151
Te       59.591604059577      185.221037164879       -6.273480438735
Te       62.728004345880      189.355931797458       -5.886120408151
Te       59.591604065833      196.710684853390       -6.273480438735
Te       62.728004352136      200.845579485969       -5.886120408151
Te       59.591604072090      208.200332541900       -6.273480438735
Te       62.728004358392      212.335227174479       -5.886120408151
Te       65.864404526122     -205.426984669590       -6.273480438735
Te       69.000804812425     -201.292090037010       -5.886120408151
Te       65.864404532378     -193.937336981079       -6.273480438735
Te       69.000804818681     -189.802442348500       -5.886120408151
Te       65.864404538634     -182.447689292569       -6.273480438735
Te       69.000804824937     -178.312794659990       -5.886120408151
Te       65.864404544891     -170.958041604059       -6.273480438735
Te       69.000804831193     -166.823146971479       -5.886120408151
Te       65.864404551147     -159.468393915548       -6.273480438735
Te       69.000804837449     -155.333499282969       -5.886120408151
Te       65.864404563676     -147.978745801921       -6.273480438735
Te       69.000804843705     -143.843851594459       -5.886120408151
Te       65.864404569932     -136.489098113411       -6.273480438735
Te       69.000804849962     -132.354203905948       -5.886120408151
Te       65.864404576188     -124.999450424900       -6.273480438735
Te       69.000804856218     -120.864556217438       -5.886120408151
Te       65.864404582444     -113.509802736390       -6.273480438735
Te       69.000804699381     -109.374908528928       -5.886120408151
Te       65.864404588700     -102.020155047880       -6.273480438735
Te       69.000804705637      -97.885260840417       -5.886120408151
Te       65.864404594957      -90.530507359369       -6.273480438735
Te       69.000804711893      -86.395613151907       -5.886120408151
Te       65.864404601213      -79.040859670859       -6.273480438735
Te       69.000804718150      -74.905965463397       -5.886120408151
Te       65.864404607469      -67.551211982349       -6.273480438735
Te       69.000804724406      -63.416317774886       -5.886120408151
Te       65.864404613725      -56.061564293838       -6.273480438735
Te       69.000804730662      -51.926670086376       -5.886120408151
Te       65.864404619981      -44.571916605328       -6.273480438735
Te       69.000804736918      -40.437022397866       -5.886120408151
Te       65.864404626237      -33.082268916818       -6.273480438735
Te       69.000804743174      -28.947374709355       -5.886120408151
Te       65.864404632494      -21.592621228307       -6.273480438735
Te       69.000804749430      -17.457727020845       -5.886120408151
Te       65.864404638750      -10.102973539797       -6.273480438735
Te       69.000804755687       -5.968079332334       -5.886120408151
Te       65.864404645006        1.386674148714       -6.273480438735
Te       69.000804761943        5.521568356176       -5.886120408151
Te       65.864404488169       12.876321837224       -6.273480438735
Te       69.000804768199       17.011216044686       -5.886120408151
Te       65.864404494425       24.365969525734       -6.273480438735
Te       69.000804774455       28.500863733197       -5.886120408151
Te       65.864404500682       35.855617214245       -6.273480438735
Te       69.000804780711       39.990511421707       -5.886120408151
Te       65.864404506938       47.345264902755       -6.273480438735
Te       69.000804786968       51.480159110217       -5.886120408151
Te       65.864404513194       58.834912591265       -6.273480438735
Te       69.000804793224       62.969806798728       -5.886120408151
Te       65.864404519450       70.324560279776       -6.273480438735
Te       69.000804805753       74.459454912355       -5.886120408151
Te       65.864404525706       81.814207968286       -6.273480438735
Te       69.000804812009       85.949102600865       -5.886120408151
Te       65.864404531962       93.303855656796       -6.273480438735
Te       69.000804818265       97.438750289376       -5.886120408151
Te       65.864404538219      104.793503345307       -6.273480438735
Te       69.000804824521      108.928397977886       -5.886120408151
Te       65.864404544475      116.283151033817       -6.273480438735
Te       69.000804830777      120.418045666396       -5.886120408151
Te       65.864404550731      127.772798722327       -6.273480438735
Te       69.000804837033      131.907693354907       -5.886120408151
Te       65.864404556987      139.262446410838       -6.273480438735
Te       69.000804843290      143.397341043417       -5.886120408151
Te       65.864404563243      150.752094099348       -6.273480438735
Te       69.000804849546      154.886988731927       -5.886120408151
Te       65.864404569500      162.241741787859       -6.273480438735
Te       69.000804855802      166.376636420438       -5.886120408151
Te       65.864404575756      173.731389476369       -6.273480438735
Te       69.000804862058      177.866284108948       -5.886120408151
Te       65.864404582012      185.221037164879       -6.273480438735
Te       69.000804705222      189.355931797458       -5.886120408151
Te       65.864404588268      196.710684853390       -6.273480438735
Te       69.000804711478      200.845579485969       -5.886120408151
Te       65.864404594524      208.200332541900       -6.273480438735
Te       69.000804717734      212.335227174479       -5.886120408151
Te       72.137205048557     -205.426984669590       -6.273480438735
Te       75.273605171766     -201.292090037010       -5.886120408151
Te       72.137205054813     -193.937336981079       -6.273480438735
Te       75.273605178023     -189.802442348500       -5.886120408151
Te       72.137205061069     -182.447689292569       -6.273480438735
Te       75.273605184279     -178.312794659990       -5.886120408151
Te       72.137205067325     -170.958041604059       -6.273480438735
Te       75.273605190535     -166.823146971479       -5.886120408151
Te       72.137205073581     -159.468393915548       -6.273480438735
Te       75.273605196791     -155.333499282969       -5.886120408151
Te       72.137204923018     -147.978745801921       -6.273480438735
Te       75.273605203047     -143.843851594459       -5.886120408151
Te       72.137204929274     -136.489098113411       -6.273480438735
Te       75.273605209303     -132.354203905948       -5.886120408151
Te       72.137204935530     -124.999450424900       -6.273480438735
Te       75.273605215560     -120.864556217438       -5.886120408151
Te       72.137204941786     -113.509802736390       -6.273480438735
Te       75.273605221816     -109.374908528928       -5.886120408151
Te       72.137204948042     -102.020155047880       -6.273480438735
Te       75.273605228072      -97.885260840417       -5.886120408151
Te       72.137204954298      -90.530507359369       -6.273480438735
Te       75.273605234328      -86.395613151907       -5.886120408151
Te       72.137204960555      -79.040859670859       -6.273480438735
Te       75.273605240584      -74.905965463397       -5.886120408151
Te       72.137204966811      -67.551211982349       -6.273480438735
Te       75.273605246840      -63.416317774886       -5.886120408151
Te       72.137204973067      -56.061564293838       -6.273480438735
Te       75.273605253097      -51.926670086376       -5.886120408151
Te       72.137204979323      -44.571916605328       -6.273480438735
Te       75.273605259353      -40.437022397866       -5.886120408151
Te       72.137204985579      -33.082268916818       -6.273480438735
Te       75.273605265609      -28.947374709355       -5.886120408151
Te       72.137204991835      -21.592621228307       -6.273480438735
Te       75.273605271865      -17.457727020845       -5.886120408151
Te       72.137204998092      -10.102973539797       -6.273480438735
Te       75.273605278121       -5.968079332334       -5.886120408151
Te       72.137205004348        1.386674148714       -6.273480438735
Te       75.273605284377        5.521568356176       -5.886120408151
Te       72.137205010604       12.876321837224       -6.273480438735
Te       75.273605290634       17.011216044686       -5.886120408151
Te       72.137205016860       24.365969525734       -6.273480438735
Te       75.273605133797       28.500863733197       -5.886120408151
Te       72.137205023116       35.855617214245       -6.273480438735
Te       75.273605140053       39.990511421707       -5.886120408151
Te       72.137205029372       47.345264902755       -6.273480438735
Te       75.273605146309       51.480159110217       -5.886120408151
Te       72.137205035629       58.834912591265       -6.273480438735
Te       75.273605152565       62.969806798728       -5.886120408151
Te       72.137205041885       70.324560279776       -6.273480438735
Te       75.273605165094       74.459454912355       -5.886120408151
Te       72.137205048141       81.814207968286       -6.273480438735
Te       75.273605171351       85.949102600865       -5.886120408151
Te       72.137205054397       93.303855656796       -6.273480438735
Te       75.273605177607       97.438750289376       -5.886120408151
Te       72.137205060653      104.793503345307       -6.273480438735
Te       75.273605183863      108.928397977886       -5.886120408151
Te       72.137205066909      116.283151033817       -6.273480438735
Te       75.273605190119      120.418045666396       -5.886120408151
Te       72.137205073166      127.772798722327       -6.273480438735
Te       75.273605196375      131.907693354907       -5.886120408151
Te       72.137204916329      139.262446410838       -6.273480438735
Te       75.273605202631      143.397341043417       -5.886120408151
Te       72.137204922585      150.752094099348       -6.273480438735
Te       75.273605208888      154.886988731927       -5.886120408151
Te       72.137204928841      162.241741787859       -6.273480438735
Te       75.273605215144      166.376636420438       -5.886120408151
Te       72.137204935097      173.731389476369       -6.273480438735
Te       75.273605221400      177.866284108948       -5.886120408151
Te       72.137204941354      185.221037164879       -6.273480438735
Te       75.273605227656      189.355931797458       -5.886120408151
Te       72.137204947610      196.710684853390       -6.273480438735
Te       75.273605233912      200.845579485969       -5.886120408151
Te       72.137204953866      208.200332541900       -6.273480438735
Te       75.273605240168      212.335227174479       -5.886120408151
Te       78.410005414155     -193.937336981079       -6.273480438735
Te      -81.546405599543     -189.802442348500       -5.886120408151
Te       78.410005420411     -182.447689292569       -6.273480438735
Te      -81.546405593287     -178.312794659990       -5.886120408151
Te       78.410005426667     -170.958041604059       -6.273480438735
Te      -81.546405587031     -166.823146971479       -5.886120408151
Te       78.410005432923     -159.468393915548       -6.273480438735
Te      -81.546405580774     -155.333499282969       -5.886120408151
Te       78.410005445452     -147.978745801921       -6.273480438735
Te      -81.546405574518     -143.843851594459       -5.886120408151
Te       78.410005451708     -136.489098113411       -6.273480438735
Te      -81.546405731355     -132.354203905948       -5.886120408151
Te       78.410005457964     -124.999450424900       -6.273480438735
Te      -81.546405725099     -120.864556217438       -5.886120408151
Te       78.410005464221     -113.509802736390       -6.273480438735
Te      -81.546405718842     -109.374908528928       -5.886120408151
Te       78.410005470477     -102.020155047880       -6.273480438735
Te      -81.546405712586      -97.885260840417       -5.886120408151
Te       78.410005476733      -90.530507359369       -6.273480438735
Te      -81.546405706330      -86.395613151907       -5.886120408151
Te       78.410005482989      -79.040859670859       -6.273480438735
Te      -81.546405700074      -74.905965463397       -5.886120408151
Te       78.410005489245      -67.551211982349       -6.273480438735
Te      -81.546405693818      -63.416317774886       -5.886120408151
Te       78.410005495501      -56.061564293838       -6.273480438735
Te      -81.546405687562      -51.926670086376       -5.886120408151
Te       78.410005501758      -44.571916605328       -6.273480438735
Te      -81.546405681305      -40.437022397866       -5.886120408151
Te       78.410005508014      -33.082268916818       -6.273480438735
Te      -81.546405675049      -28.947374709355       -5.886120408151
Te       78.410005514270      -21.592621228307       -6.273480438735
Te      -81.546405668793      -17.457727020845       -5.886120408151
Te       78.410005357433      -10.102973539797       -6.273480438735
Te      -81.546405662537       -5.968079332334       -5.886120408151
Te       78.410005363690        1.386674148714       -6.273480438735
Te       81.546405643719        5.521568356176       -5.886120408151
Te       78.410005369946       12.876321837224       -6.273480438735
Te       81.546405649975       17.011216044686       -5.886120408151
Te       78.410005376202       24.365969525734       -6.273480438735
Te       81.546405656232       28.500863733197       -5.886120408151
Te       78.410005382458       35.855617214245       -6.273480438735
Te       81.546405662488       39.990511421707       -5.886120408151
Te       78.410005388714       47.345264902755       -6.273480438735
Te       81.546405668744       51.480159110217       -5.886120408151
Te       78.410005394970       58.834912591265       -6.273480438735
Te       81.546405675000       62.969806798728       -5.886120408151
Te       78.410005401227       70.324560279776       -6.273480438735
Te       81.546405687529       74.459454912355       -5.886120408151
Te       78.410005407483       81.814207968286       -6.273480438735
Te       81.546405693785       85.949102600865       -5.886120408151
Te       78.410005413739       93.303855656796       -6.273480438735
Te       81.546405700041       97.438750289376       -5.886120408151
Te       78.410005419995      104.793503345307       -6.273480438735
Te       81.546405706298      108.928397977886       -5.886120408151
Te       78.410005426251      116.283151033817       -6.273480438735
Te       81.546405712554      120.418045666396       -5.886120408151
Te       78.410005432507      127.772798722327       -6.273480438735
Te       81.546405718810      131.907693354907       -5.886120408151
Te       78.410005438764      139.262446410838       -6.273480438735
Te       81.546405725066      143.397341043417       -5.886120408151
Te       78.410005445020      150.752094099348       -6.273480438735
Te       81.546405731322      154.886988731927       -5.886120408151
Te       78.410005451276      162.241741787859       -6.273480438735
Te       81.546405574486      166.376636420438       -5.886120408151
Te       78.410005457532      173.731389476369       -6.273480438735
Te       81.546405580742      177.866284108948       -5.886120408151
Te       78.410005463788      185.221037164879       -6.273480438735
Te       81.546405586998      189.355931797458       -5.886120408151
Te       78.410005470044      196.710684853390       -6.273480438735
Te       81.546405593254      200.845579485969       -5.886120408151
Te       78.410005476301      208.200332541900       -6.273480438735
Te       81.546405599510      212.335227174479       -5.886120408151
Te       75.273605240761     -196.700011016635        5.923920432267
Te       78.410005489438     -200.836629073390        6.251940455737
Te       75.273605247017     -185.210363328124        5.923920432267
Te       78.410005495694     -189.346981384879        6.251940455737
Te       75.273605253273     -173.720715639614        5.923920432267
Te       78.410005501951     -177.857333696369        6.251940455737
Te       75.273605259529     -162.231067951104        5.923920432267
Te       78.410005508207     -166.367686007859        6.251940455737
Te       75.273605265785     -150.741420262593        5.923920432267
Te       78.410005351370     -154.878038319348        6.251940455737
Te       75.273605272041     -139.251772574083        5.923920432267
Te       78.410005357626     -143.388390630838        6.251940455737
Te       75.273605278298     -127.762124885573        5.923920432267
Te       78.410005363882     -131.898742942328        6.251940455737
Te       75.273605284554     -116.272477197062        5.923920432267
Te       78.410005370139     -120.409095253817        6.251940455737
Te       75.273605290810     -104.782829508552        5.923920432267
Te       78.410005376395     -108.919447565307        6.251940455737
Te       75.273605133973      -93.293181820042        5.923920432267
Te       78.410005382651      -97.429799876797        6.251940455737
Te       75.273605140229      -81.803534131531        5.923920432267
Te       78.410005395180      -85.940151763169        6.251940455737
Te       75.273605146486      -70.313886443021        5.923920432267
Te       78.410005401436      -74.450504074659        6.251940455737
Te       75.273605152742      -58.824238754511        5.923920432267
Te       78.410005407692      -62.960856386149        6.251940455737
Te       75.273605158998      -47.334591066000        5.923920432267
Te       78.410005413948      -51.471208697638        6.251940455737
Te       75.273605165254      -35.844943377490        5.923920432267
Te       78.410005420205      -39.981561009128        6.251940455737
Te       75.273605171510      -24.355295688980        5.923920432267
Te       78.410005426461      -28.491913320618        6.251940455737
Te       75.273605177766      -12.865648000469        5.923920432267
Te       78.410005432717      -17.002265632107        6.251940455737
Te       75.273605184023       -1.376000311959        5.923920432267
Te       78.410005438973       -5.512617943597        6.251940455737
Te       75.273605190279       10.113647376552        5.923920432267
Te       78.410005445229        5.977029744913        6.251940455737
Te       75.273605196535       21.603295065062        5.923920432267
Te       78.410005451485       17.466677433424        6.251940455737
Te       75.273605202791       33.092942753572        5.923920432267
Te       78.410005457742       28.956325121934        6.251940455737
Te       75.273605209047       44.582590442083        5.923920432267
Te       78.410005463998       40.445972810445        6.251940455737
Te       75.273605215303       56.072238130593        5.923920432267
Te       78.410005470254       51.935620498955        6.251940455737
Te       75.273605221560       67.561885819103        5.923920432267
Te       78.410005476510       63.425268187465        6.251940455737
Te       75.273605227816       79.051533507614        5.923920432267
Te       78.410005482766       74.914915875976        6.251940455737
Te       75.273605234072       90.541181196124        5.923920432267
Te       78.410005489022       86.404563564486        6.251940455737
Te       75.273605240328      102.030828884634        5.923920432267
Te       78.410005495279       97.894211252996        6.251940455737
Te       75.273605252857      113.520476998262        5.923920432267
Te       78.410005501535      109.383858941507        6.251940455737
Te       75.273605259113      125.010124686772        5.923920432267
Te       78.410005507791      120.873506630017        6.251940455737
Te       75.273605265369      136.499772375282        5.923920432267
Te       78.410005350954      132.363154318527        6.251940455737
Te       75.273605271626      147.989420063793        5.923920432267
Te       78.410005357210      143.852802007038        6.251940455737
Te       75.273605277882      159.479067752303        5.923920432267
Te       78.410005363467      155.342449695548        6.251940455737
Te       75.273605284138      170.968715440813        5.923920432267
Te       78.410005369723      166.832097384058        6.251940455737
Te       75.273605290394      182.458363129324        5.923920432267
Te       78.410005375979      178.321745072569        6.251940455737
Te       75.273605296650      193.948010817834        5.923920432267
Te       78.410005382235      189.811392761079        6.251940455737
Te       75.273605139814      205.437658506344        5.923920432267
Te       78.410005388491      201.301040449589        6.251940455737
Te       69.000804712070     -208.189658705145        5.923920432267
Te       72.137204960747     -212.326276761900        6.251940455737
Te       69.000804718326     -196.700011016635        5.923920432267
Te       72.137204967004     -200.836629073390        6.251940455737
Te       69.000804724582     -185.210363328124        5.923920432267
Te       72.137204973260     -189.346981384879        6.251940455737
Te       69.000804730838     -173.720715639614        5.923920432267
Te       72.137204979516     -177.857333696369        6.251940455737
Te       69.000804737094     -162.231067951104        5.923920432267
Te       72.137204985772     -166.367686007859        6.251940455737
Te       69.000804743351     -150.741420262593        5.923920432267
Te       72.137204992028     -154.878038319348        6.251940455737
Te       69.000804749607     -139.251772574083        5.923920432267
Te       72.137204998285     -143.388390630838        6.251940455737
Te       69.000804755863     -127.762124885573        5.923920432267
Te       72.137205004541     -131.898742942328        6.251940455737
Te       69.000804762119     -116.272477197062        5.923920432267
Te       72.137205010797     -120.409095253817        6.251940455737
Te       69.000804768375     -104.782829508552        5.923920432267
Te       72.137205017053     -108.919447565307        6.251940455737
Te       69.000804774631      -93.293181820042        5.923920432267
Te       72.137205023309      -97.429799876797        6.251940455737
Te       69.000804780888      -81.803534131531        5.923920432267
Te       72.137205035838      -85.940151763169        6.251940455737
Te       69.000804787144      -70.313886443021        5.923920432267
Te       72.137205042094      -74.450504074659        6.251940455737
Te       69.000804793400      -58.824238754511        5.923920432267
Te       72.137205048350      -62.960856386149        6.251940455737
Te       69.000804799656      -47.334591066000        5.923920432267
Te       72.137205054607      -51.471208697638        6.251940455737
Te       69.000804805912      -35.844943377490        5.923920432267
Te       72.137205060863      -39.981561009128        6.251940455737
Te       69.000804812168      -24.355295688980        5.923920432267
Te       72.137205067119      -28.491913320618        6.251940455737
Te       69.000804818425      -12.865648000469        5.923920432267
Te       72.137205073375      -17.002265632107        6.251940455737
Te       69.000804824681       -1.376000311959        5.923920432267
Te       72.137205079631       -5.512617943597        6.251940455737
Te       69.000804830937       10.113647376552        5.923920432267
Te       72.137204922795        5.977029744913        6.251940455737
Te       69.000804837193       21.603295065062        5.923920432267
Te       72.137204929051       17.466677433424        6.251940455737
Te       69.000804843449       33.092942753572        5.923920432267
Te       72.137204935307       28.956325121934        6.251940455737
Te       69.000804849705       44.582590442083        5.923920432267
Te       72.137204941563       40.445972810445        6.251940455737
Te       69.000804855962       56.072238130593        5.923920432267
Te       72.137204947819       51.935620498955        6.251940455737
Te       69.000804699125       67.561885819103        5.923920432267
Te       72.137204954076       63.425268187465        6.251940455737
Te       69.000804705381       79.051533507614        5.923920432267
Te       72.137204960332       74.914915875976        6.251940455737
Te       69.000804711637       90.541181196124        5.923920432267
Te       72.137204966588       86.404563564486        6.251940455737
Te       69.000804717894      102.030828884634        5.923920432267
Te       72.137204972844       97.894211252996        6.251940455737
Te       69.000804730423      113.520476998262        5.923920432267
Te       72.137204979100      109.383858941507        6.251940455737
Te       69.000804736679      125.010124686772        5.923920432267
Te       72.137204985356      120.873506630017        6.251940455737
Te       69.000804742935      136.499772375282        5.923920432267
Te       72.137204991613      132.363154318527        6.251940455737
Te       69.000804749191      147.989420063793        5.923920432267
Te       72.137204997869      143.852802007038        6.251940455737
Te       69.000804755447      159.479067752303        5.923920432267
Te       72.137205004125      155.342449695548        6.251940455737
Te       69.000804761703      170.968715440813        5.923920432267
Te       72.137205010381      166.832097384058        6.251940455737
Te       69.000804767960      182.458363129324        5.923920432267
Te       72.137205016637      178.321745072569        6.251940455737
Te       69.000804774216      193.948010817834        5.923920432267
Te       72.137205022893      189.811392761079        6.251940455737
Te       69.000804780472      205.437658506344        5.923920432267
Te       72.137205029150      201.301040449589        6.251940455737
Te       62.728004352728     -208.189658705145        5.923920432267
Te       65.864404601406     -212.326276761900        6.251940455737
Te       62.728004358984     -196.700011016635        5.923920432267
Te       65.864404607662     -200.836629073390        6.251940455737
Te       62.728004365240     -185.210363328124        5.923920432267
Te       65.864404613918     -189.346981384879        6.251940455737
Te       62.728004371497     -173.720715639614        5.923920432267
Te       65.864404620174     -177.857333696369        6.251940455737
Te       62.728004377753     -162.231067951104        5.923920432267
Te       65.864404626430     -166.367686007859        6.251940455737
Te       62.728004384009     -150.741420262593        5.923920432267
Te       65.864404632687     -154.878038319348        6.251940455737
Te       62.728004390265     -139.251772574083        5.923920432267
Te       65.864404638943     -143.388390630838        6.251940455737
Te       62.728004396521     -127.762124885573        5.923920432267
Te       65.864404482106     -131.898742942328        6.251940455737
Te       62.728004402777     -116.272477197062        5.923920432267
Te       65.864404488362     -120.409095253817        6.251940455737
Te       62.728004409034     -104.782829508552        5.923920432267
Te       65.864404494618     -108.919447565307        6.251940455737
Te       62.728004415290      -93.293181820042        5.923920432267
Te       65.864404500875      -97.429799876797        6.251940455737
Te       62.728004421546      -81.803534131531        5.923920432267
Te       65.864404513404      -85.940151763169        6.251940455737
Te       62.728004264709      -70.313886443021        5.923920432267
Te       65.864404519660      -74.450504074659        6.251940455737
Te       62.728004270965      -58.824238754511        5.923920432267
Te       65.864404525916      -62.960856386149        6.251940455737
Te       62.728004277222      -47.334591066000        5.923920432267
Te       65.864404532172      -51.471208697638        6.251940455737
Te       62.728004283478      -35.844943377490        5.923920432267
Te       65.864404538428      -39.981561009128        6.251940455737
Te       62.728004289734      -24.355295688980        5.923920432267
Te       65.864404544684      -28.491913320618        6.251940455737
Te       62.728004295990      -12.865648000469        5.923920432267
Te       65.864404550941      -17.002265632107        6.251940455737
Te       62.728004302246       -1.376000311959        5.923920432267
Te       65.864404557197       -5.512617943597        6.251940455737
Te       62.728004308502       10.113647376552        5.923920432267
Te       65.864404563453        5.977029744913        6.251940455737
Te       62.728004314759       21.603295065062        5.923920432267
Te       65.864404569709       17.466677433424        6.251940455737
Te       62.728004321015       33.092942753572        5.923920432267
Te       65.864404575965       28.956325121934        6.251940455737
Te       62.728004327271       44.582590442083        5.923920432267
Te       65.864404582221       40.445972810445        6.251940455737
Te       62.728004333527       56.072238130593        5.923920432267
Te       65.864404588478       51.935620498955        6.251940455737
Te       62.728004339783       67.561885819103        5.923920432267
Te       65.864404594734       63.425268187465        6.251940455737
Te       62.728004346039       79.051533507614        5.923920432267
Te       65.864404600990       74.914915875976        6.251940455737
Te       62.728004352296       90.541181196124        5.923920432267
Te       65.864404607246       86.404563564486        6.251940455737
Te       62.728004358552      102.030828884634        5.923920432267
Te       65.864404613502       97.894211252996        6.251940455737
Te       62.728004371081      113.520476998262        5.923920432267
Te       65.864404619758      109.383858941507        6.251940455737
Te       62.728004377337      125.010124686772        5.923920432267
Te       65.864404626015      120.873506630017        6.251940455737
Te       62.728004383593      136.499772375282        5.923920432267
Te       65.864404632271      132.363154318527        6.251940455737
Te       62.728004389849      147.989420063793        5.923920432267
Te       65.864404638527      143.852802007038        6.251940455737
Te       62.728004396105      159.479067752303        5.923920432267
Te       65.864404481690      155.342449695548        6.251940455737
Te       62.728004402362      170.968715440813        5.923920432267
Te       65.864404487946      166.832097384058        6.251940455737
Te       62.728004408618      182.458363129324        5.923920432267
Te       65.864404494203      178.321745072569        6.251940455737
Te       62.728004414874      193.948010817834        5.923920432267
Te       65.864404500459      189.811392761079        6.251940455737
Te       62.728004421130      205.437658506344        5.923920432267
Te       65.864404506715      201.301040449589        6.251940455737
Te       56.455203993386     -208.189658705145        5.923920432267
Te       59.591604078971     -212.326276761900        6.251940455737
Te       56.455203836550     -196.700011016635        5.923920432267
Te       59.591604085227     -200.836629073390        6.251940455737
Te       56.455203842806     -185.210363328124        5.923920432267
Te       59.591604091483     -189.346981384879        6.251940455737
Te       56.455203849062     -173.720715639614        5.923920432267
Te       59.591604097740     -177.857333696369        6.251940455737
Te       56.455203855318     -162.231067951104        5.923920432267
Te       59.591604103996     -166.367686007859        6.251940455737
Te       56.455203861574     -150.741420262593        5.923920432267
Te       59.591604110252     -154.878038319348        6.251940455737
Te       56.455203867830     -139.251772574083        5.923920432267
Te       59.591604116508     -143.388390630838        6.251940455737
Te       56.455203874087     -127.762124885573        5.923920432267
Te       59.591604122764     -131.898742942328        6.251940455737
Te       56.455203880343     -116.272477197062        5.923920432267
Te       59.591604129020     -120.409095253817        6.251940455737
Te       56.455203886599     -104.782829508552        5.923920432267
Te       59.591604135277     -108.919447565307        6.251940455737
Te       56.455203892855      -93.293181820042        5.923920432267
Te       59.591604141533      -97.429799876797        6.251940455737
Te       56.455203899111      -81.803534131531        5.923920432267
Te       59.591604154062      -85.940151763169        6.251940455737
Te       56.455203905367      -70.313886443021        5.923920432267
Te       59.591604160318      -74.450504074659        6.251940455737
Te       56.455203911624      -58.824238754511        5.923920432267
Te       59.591604166574      -62.960856386149        6.251940455737
Te       56.455203917880      -47.334591066000        5.923920432267
Te       59.591604172830      -51.471208697638        6.251940455737
Te       56.455203924136      -35.844943377490        5.923920432267
Te       59.591604179086      -39.981561009128        6.251940455737
Te       56.455203930392      -24.355295688980        5.923920432267
Te       59.591604185343      -28.491913320618        6.251940455737
Te       56.455203936648      -12.865648000469        5.923920432267
Te       59.591604191599      -17.002265632107        6.251940455737
Te       56.455203942904       -1.376000311959        5.923920432267
Te       59.591604197855       -5.512617943597        6.251940455737
Te       56.455203949161       10.113647376552        5.923920432267
Te       59.591604204111        5.977029744913        6.251940455737
Te       56.455203955417       21.603295065062        5.923920432267
Te       59.591604210367       17.466677433424        6.251940455737
Te       56.455203961673       33.092942753572        5.923920432267
Te       59.591604053531       28.956325121934        6.251940455737
Te       56.455203967929       44.582590442083        5.923920432267
Te       59.591604059787       40.445972810445        6.251940455737
Te       56.455203974185       56.072238130593        5.923920432267
Te       59.591604066043       51.935620498955        6.251940455737
Te       56.455203980441       67.561885819103        5.923920432267
Te       59.591604072299       63.425268187465        6.251940455737
Te       56.455203986698       79.051533507614        5.923920432267
Te       59.591604078555       74.914915875976        6.251940455737
Te       56.455203829861       90.541181196124        5.923920432267
Te       59.591604084811       86.404563564486        6.251940455737
Te       56.455203836117      102.030828884634        5.923920432267
Te       59.591604091068       97.894211252996        6.251940455737
Te       56.455203848646      113.520476998262        5.923920432267
Te       59.591604097324      109.383858941507        6.251940455737
Te       56.455203854902      125.010124686772        5.923920432267
Te       59.591604103580      120.873506630017        6.251940455737
Te       56.455203861158      136.499772375282        5.923920432267
Te       59.591604109836      132.363154318527        6.251940455737
Te       56.455203867415      147.989420063793        5.923920432267
Te       59.591604116092      143.852802007038        6.251940455737
Te       56.455203873671      159.479067752303        5.923920432267
Te       59.591604122348      155.342449695548        6.251940455737
Te       56.455203879927      170.968715440813        5.923920432267
Te       59.591604128605      166.832097384058        6.251940455737
Te       56.455203886183      182.458363129324        5.923920432267
Te       59.591604134861      178.321745072569        6.251940455737
Te       56.455203892439      193.948010817834        5.923920432267
Te       59.591604141117      189.811392761079        6.251940455737
Te       56.455203898696      205.437658506344        5.923920432267
Te       59.591604147373      201.301040449589        6.251940455737
Te       50.182403470952     -208.189658705145        5.923920432267
Te       53.318803719629     -212.326276761900        6.251940455737
Te       50.182403477208     -196.700011016635        5.923920432267
Te       53.318803725886     -200.836629073390        6.251940455737
Te       50.182403483464     -185.210363328124        5.923920432267
Te       53.318803732142     -189.346981384879        6.251940455737
Te       50.182403489720     -173.720715639614        5.923920432267
Te       53.318803738398     -177.857333696369        6.251940455737
Te       50.182403495976     -162.231067951104        5.923920432267
Te       53.318803744654     -166.367686007859        6.251940455737
Te       50.182403502232     -150.741420262593        5.923920432267
Te       53.318803750910     -154.878038319348        6.251940455737
Te       50.182403508489     -139.251772574083        5.923920432267
Te       53.318803757166     -143.388390630838        6.251940455737
Te       50.182403514745     -127.762124885573        5.923920432267
Te       53.318803763423     -131.898742942328        6.251940455737
Te       50.182403521001     -116.272477197062        5.923920432267
Te       53.318803769679     -120.409095253817        6.251940455737
Te       50.182403527257     -104.782829508552        5.923920432267
Te       53.318803612842     -108.919447565307        6.251940455737
Te       50.182403533513      -93.293181820042        5.923920432267
Te       53.318803619098      -97.429799876797        6.251940455737
Te       50.182403539769      -81.803534131531        5.923920432267
Te       53.318803631627      -85.940151763169        6.251940455737
Te       50.182403546026      -70.313886443021        5.923920432267
Te       53.318803637883      -74.450504074659        6.251940455737
Te       50.182403552282      -58.824238754511        5.923920432267
Te       53.318803644140      -62.960856386149        6.251940455737
Te       50.182403395445      -47.334591066000        5.923920432267
Te       53.318803650396      -51.471208697638        6.251940455737
Te       50.182403401701      -35.844943377490        5.923920432267
Te       53.318803656652      -39.981561009128        6.251940455737
Te       50.182403407958      -24.355295688980        5.923920432267
Te       53.318803662908      -28.491913320618        6.251940455737
Te       50.182403414214      -12.865648000469        5.923920432267
Te       53.318803669164      -17.002265632107        6.251940455737
Te       50.182403420470       -1.376000311959        5.923920432267
Te       53.318803675420       -5.512617943597        6.251940455737
Te       50.182403426726       10.113647376552        5.923920432267
Te       53.318803681676        5.977029744913        6.251940455737
Te       50.182403432982       21.603295065062        5.923920432267
Te       53.318803687933       17.466677433424        6.251940455737
Te       50.182403439238       33.092942753572        5.923920432267
Te       53.318803694189       28.956325121934        6.251940455737
Te       50.182403445495       44.582590442083        5.923920432267
Te       53.318803700445       40.445972810445        6.251940455737
Te       50.182403451751       56.072238130593        5.923920432267
Te       53.318803706701       51.935620498955        6.251940455737
Te       50.182403458007       67.561885819103        5.923920432267
Te       53.318803712957       63.425268187465        6.251940455737
Te       50.182403464263       79.051533507614        5.923920432267
Te       53.318803719214       74.914915875976        6.251940455737
Te       50.182403470519       90.541181196124        5.923920432267
Te       53.318803725470       86.404563564486        6.251940455737
Te       50.182403476775      102.030828884634        5.923920432267
Te       53.318803731726       97.894211252996        6.251940455737
Te       50.182403489304      113.520476998262        5.923920432267
Te       53.318803737982      109.383858941507        6.251940455737
Te       50.182403495561      125.010124686772        5.923920432267
Te       53.318803744238      120.873506630017        6.251940455737
Te       50.182403501817      136.499772375282        5.923920432267
Te       53.318803750494      132.363154318527        6.251940455737
Te       50.182403508073      147.989420063793        5.923920432267
Te       53.318803756751      143.852802007038        6.251940455737
Te       50.182403514329      159.479067752303        5.923920432267
Te       53.318803763007      155.342449695548        6.251940455737
Te       50.182403520585      170.968715440813        5.923920432267
Te       53.318803769263      166.832097384058        6.251940455737
Te       50.182403526841      182.458363129324        5.923920432267
Te       53.318803612426      178.321745072569        6.251940455737
Te       50.182403533098      193.948010817834        5.923920432267
Te       53.318803618682      189.811392761079        6.251940455737
Te       50.182403539354      205.437658506344        5.923920432267
Te       53.318803624939      201.301040449589        6.251940455737
Te       43.909603111610     -208.189658705145        5.923920432267
Te       47.046003197195     -212.326276761900        6.251940455737
Te       43.909603117866     -196.700011016635        5.923920432267
Te       47.046003203451     -200.836629073390        6.251940455737
Te       43.909603124122     -185.210363328124        5.923920432267
Te       47.046003209707     -189.346981384879        6.251940455737
Te       43.909602967286     -173.720715639614        5.923920432267
Te       47.046003215963     -177.857333696369        6.251940455737
Te       43.909602973542     -162.231067951104        5.923920432267
Te       47.046003222219     -166.367686007859        6.251940455737
Te       43.909602979798     -150.741420262593        5.923920432267
Te       47.046003228476     -154.878038319348        6.251940455737
Te       43.909602986054     -139.251772574083        5.923920432267
Te       47.046003234732     -143.388390630838        6.251940455737
Te       43.909602992310     -127.762124885573        5.923920432267
Te       47.046003240988     -131.898742942328        6.251940455737
Te       43.909602998566     -116.272477197062        5.923920432267
Te       47.046003247244     -120.409095253817        6.251940455737
Te       43.909603004823     -104.782829508552        5.923920432267
Te       47.046003253500     -108.919447565307        6.251940455737
Te       43.909603011079      -93.293181820042        5.923920432267
Te       47.046003259756      -97.429799876797        6.251940455737
Te       43.909603017335      -81.803534131531        5.923920432267
Te       47.046003272285      -85.940151763169        6.251940455737
Te       43.909603023591      -70.313886443021        5.923920432267
Te       47.046003278542      -74.450504074659        6.251940455737
Te       43.909603029847      -58.824238754511        5.923920432267
Te       47.046003284798      -62.960856386149        6.251940455737
Te       43.909603036103      -47.334591066000        5.923920432267
Te       47.046003291054      -51.471208697638        6.251940455737
Te       43.909603042360      -35.844943377490        5.923920432267
Te       47.046003297310      -39.981561009128        6.251940455737
Te       43.909603048616      -24.355295688980        5.923920432267
Te       47.046003303566      -28.491913320618        6.251940455737
Te       43.909603054872      -12.865648000469        5.923920432267
Te       47.046003309822      -17.002265632107        6.251940455737
Te       43.909603061128       -1.376000311959        5.923920432267
Te       47.046003316079       -5.512617943597        6.251940455737
Te       43.909603067384       10.113647376552        5.923920432267
Te       47.046003322335        5.977029744913        6.251940455737
Te       43.909603073640       21.603295065062        5.923920432267
Te       47.046003328591       17.466677433424        6.251940455737
Te       43.909603079897       33.092942753572        5.923920432267
Te       47.046003334847       28.956325121934        6.251940455737
Te       43.909603086153       44.582590442083        5.923920432267
Te       47.046003341103       40.445972810445        6.251940455737
Te       43.909603092409       56.072238130593        5.923920432267
Te       47.046003184267       51.935620498955        6.251940455737
Te       43.909603098665       67.561885819103        5.923920432267
Te       47.046003190523       63.425268187465        6.251940455737
Te       43.909603104921       79.051533507614        5.923920432267
Te       47.046003196779       74.914915875976        6.251940455737
Te       43.909603111177       90.541181196124        5.923920432267
Te       47.046003203035       86.404563564486        6.251940455737
Te       43.909603117434      102.030828884634        5.923920432267
Te       47.046003209291       97.894211252996        6.251940455737
Te       43.909602966870      113.520476998262        5.923920432267
Te       47.046003215547      109.383858941507        6.251940455737
Te       43.909602973126      125.010124686772        5.923920432267
Te       47.046003221804      120.873506630017        6.251940455737
Te       43.909602979382      136.499772375282        5.923920432267
Te       47.046003228060      132.363154318527        6.251940455737
Te       43.909602985638      147.989420063793        5.923920432267
Te       47.046003234316      143.852802007038        6.251940455737
Te       43.909602991894      159.479067752303        5.923920432267
Te       47.046003240572      155.342449695548        6.251940455737
Te       43.909602998151      170.968715440813        5.923920432267
Te       47.046003246828      166.832097384058        6.251940455737
Te       43.909603004407      182.458363129324        5.923920432267
Te       47.046003253084      178.321745072569        6.251940455737
Te       43.909603010663      193.948010817834        5.923920432267
Te       47.046003259341      189.811392761079        6.251940455737
Te       43.909603016919      205.437658506344        5.923920432267
Te       47.046003265597      201.301040449589        6.251940455737
Te       37.636802589175     -208.189658705145        5.923920432267
Te       40.773202837853     -212.326276761900        6.251940455737
Te       37.636802595431     -196.700011016635        5.923920432267
Te       40.773202844109     -200.836629073390        6.251940455737
Te       37.636802601688     -185.210363328124        5.923920432267
Te       40.773202850365     -189.346981384879        6.251940455737
Te       37.636802607944     -173.720715639614        5.923920432267
Te       40.773202856621     -177.857333696369        6.251940455737
Te       37.636802614200     -162.231067951104        5.923920432267
Te       40.773202862878     -166.367686007859        6.251940455737
Te       37.636802620456     -150.741420262593        5.923920432267
Te       40.773202869134     -154.878038319348        6.251940455737
Te       37.636802626712     -139.251772574083        5.923920432267
Te       40.773202875390     -143.388390630838        6.251940455737
Te       37.636802632968     -127.762124885573        5.923920432267
Te       40.773202881646     -131.898742942328        6.251940455737
Te       37.636802639225     -116.272477197062        5.923920432267
Te       40.773202887902     -120.409095253817        6.251940455737
Te       37.636802645481     -104.782829508552        5.923920432267
Te       40.773202894158     -108.919447565307        6.251940455737
Te       37.636802651737      -93.293181820042        5.923920432267
Te       40.773202900415      -97.429799876797        6.251940455737
Te       37.636802657993      -81.803534131531        5.923920432267
Te       40.773202749851      -85.940151763169        6.251940455737
Te       37.636802664249      -70.313886443021        5.923920432267
Te       40.773202756107      -74.450504074659        6.251940455737
Te       37.636802670505      -58.824238754511        5.923920432267
Te       40.773202762363      -62.960856386149        6.251940455737
Te       37.636802676762      -47.334591066000        5.923920432267
Te       40.773202768619      -51.471208697638        6.251940455737
Te       37.636802683018      -35.844943377490        5.923920432267
Te       40.773202774875      -39.981561009128        6.251940455737
Te       37.636802526181      -24.355295688980        5.923920432267
Te       40.773202781132      -28.491913320618        6.251940455737
Te       37.636802532437      -12.865648000469        5.923920432267
Te       40.773202787388      -17.002265632107        6.251940455737
Te       37.636802538694       -1.376000311959        5.923920432267
Te       40.773202793644       -5.512617943597        6.251940455737
Te       37.636802544950       10.113647376552        5.923920432267
Te       40.773202799900        5.977029744913        6.251940455737
Te       37.636802551206       21.603295065062        5.923920432267
Te       40.773202806156       17.466677433424        6.251940455737
Te       37.636802557462       33.092942753572        5.923920432267
Te       40.773202812412       28.956325121934        6.251940455737
Te       37.636802563718       44.582590442083        5.923920432267
Te       40.773202818669       40.445972810445        6.251940455737
Te       37.636802569974       56.072238130593        5.923920432267
Te       40.773202824925       51.935620498955        6.251940455737
Te       37.636802576230       67.561885819103        5.923920432267
Te       40.773202831181       63.425268187465        6.251940455737
Te       37.636802582487       79.051533507614        5.923920432267
Te       40.773202837437       74.914915875976        6.251940455737
Te       37.636802588743       90.541181196124        5.923920432267
Te       40.773202843693       86.404563564486        6.251940455737
Te       37.636802594999      102.030828884634        5.923920432267
Te       40.773202849949       97.894211252996        6.251940455737
Te       37.636802607528      113.520476998262        5.923920432267
Te       40.773202856206      109.383858941507        6.251940455737
Te       37.636802613784      125.010124686772        5.923920432267
Te       40.773202862462      120.873506630017        6.251940455737
Te       37.636802620040      136.499772375282        5.923920432267
Te       40.773202868718      132.363154318527        6.251940455737
Te       37.636802626296      147.989420063793        5.923920432267
Te       40.773202874974      143.852802007038        6.251940455737
Te       37.636802632553      159.479067752303        5.923920432267
Te       40.773202881230      155.342449695548        6.251940455737
Te       37.636802638809      170.968715440813        5.923920432267
Te       40.773202887486      166.832097384058        6.251940455737
Te       37.636802645065      182.458363129324        5.923920432267
Te       40.773202893743      178.321745072569        6.251940455737
Te       37.636802651321      193.948010817834        5.923920432267
Te       40.773202899999      189.811392761079        6.251940455737
Te       37.636802657577      205.437658506344        5.923920432267
Te       40.773202743162      201.301040449589        6.251940455737
Te       31.364002229833     -208.189658705145        5.923920432267
Te       34.500402315418     -212.326276761900        6.251940455737
Te       31.364002236090     -196.700011016635        5.923920432267
Te       34.500402321675     -200.836629073390        6.251940455737
Te       31.364002242346     -185.210363328124        5.923920432267
Te       34.500402327931     -189.346981384879        6.251940455737
Te       31.364002248602     -173.720715639614        5.923920432267
Te       34.500402334187     -177.857333696369        6.251940455737
Te       31.364002254858     -162.231067951104        5.923920432267
Te       34.500402340443     -166.367686007859        6.251940455737
Te       31.364002098022     -150.741420262593        5.923920432267
Te       34.500402346699     -154.878038319348        6.251940455737
Te       31.364002104278     -139.251772574083        5.923920432267
Te       34.500402352955     -143.388390630838        6.251940455737
Te       31.364002110534     -127.762124885573        5.923920432267
Te       34.500402359212     -131.898742942328        6.251940455737
Te       31.364002116790     -116.272477197062        5.923920432267
Te       34.500402365468     -120.409095253817        6.251940455737
Te       31.364002123046     -104.782829508552        5.923920432267
Te       34.500402371724     -108.919447565307        6.251940455737
Te       31.364002129302      -93.293181820042        5.923920432267
Te       34.500402377980      -97.429799876797        6.251940455737
Te       31.364002135559      -81.803534131531        5.923920432267
Te       34.500402390509      -85.940151763169        6.251940455737
Te       31.364002141815      -70.313886443021        5.923920432267
Te       34.500402396765      -74.450504074659        6.251940455737
Te       31.364002148071      -58.824238754511        5.923920432267
Te       34.500402403021      -62.960856386149        6.251940455737
Te       31.364002154327      -47.334591066000        5.923920432267
Te       34.500402409278      -51.471208697638        6.251940455737
Te       31.364002160583      -35.844943377490        5.923920432267
Te       34.500402415534      -39.981561009128        6.251940455737
Te       31.364002166839      -24.355295688980        5.923920432267
Te       34.500402421790      -28.491913320618        6.251940455737
Te       31.364002173096      -12.865648000469        5.923920432267
Te       34.500402428046      -17.002265632107        6.251940455737
Te       31.364002179352       -1.376000311959        5.923920432267
Te       34.500402434302       -5.512617943597        6.251940455737
Te       31.364002185608       10.113647376552        5.923920432267
Te       34.500402440558        5.977029744913        6.251940455737
Te       31.364002191864       21.603295065062        5.923920432267
Te       34.500402446815       17.466677433424        6.251940455737
Te       31.364002198120       33.092942753572        5.923920432267
Te       34.500402453071       28.956325121934        6.251940455737
Te       31.364002204376       44.582590442083        5.923920432267
Te       34.500402459327       40.445972810445        6.251940455737
Te       31.364002210633       56.072238130593        5.923920432267
Te       34.500402465583       51.935620498955        6.251940455737
Te       31.364002216889       67.561885819103        5.923920432267
Te       34.500402471839       63.425268187465        6.251940455737
Te       31.364002223145       79.051533507614        5.923920432267
Te       34.500402315003       74.914915875976        6.251940455737
Te       31.364002229401       90.541181196124        5.923920432267
Te       34.500402321259       86.404563564486        6.251940455737
Te       31.364002235657      102.030828884634        5.923920432267
Te       34.500402327515       97.894211252996        6.251940455737
Te       31.364002248186      113.520476998262        5.923920432267
Te       34.500402333771      109.383858941507        6.251940455737
Te       31.364002254442      125.010124686772        5.923920432267
Te       34.500402340027      120.873506630017        6.251940455737
Te       31.364002097606      136.499772375282        5.923920432267
Te       34.500402346283      132.363154318527        6.251940455737
Te       31.364002103862      147.989420063793        5.923920432267
Te       34.500402352540      143.852802007038        6.251940455737
Te       31.364002110118      159.479067752303        5.923920432267
Te       34.500402358796      155.342449695548        6.251940455737
Te       31.364002116374      170.968715440813        5.923920432267
Te       34.500402365052      166.832097384058        6.251940455737
Te       31.364002122630      182.458363129324        5.923920432267
Te       34.500402371308      178.321745072569        6.251940455737
Te       31.364002128887      193.948010817834        5.923920432267
Te       34.500402377564      189.811392761079        6.251940455737
Te       31.364002135143      205.437658506344        5.923920432267
Te       34.500402383820      201.301040449589        6.251940455737
Te       25.091201707399     -208.189658705145        5.923920432267
Te       28.227601956077     -212.326276761900        6.251940455737
Te       25.091201713655     -196.700011016635        5.923920432267
Te       28.227601962333     -200.836629073390        6.251940455737
Te       25.091201719911     -185.210363328124        5.923920432267
Te       28.227601968589     -189.346981384879        6.251940455737
Te       25.091201726167     -173.720715639614        5.923920432267
Te       28.227601974845     -177.857333696369        6.251940455737
Te       25.091201732424     -162.231067951104        5.923920432267
Te       28.227601981101     -166.367686007859        6.251940455737
Te       25.091201738680     -150.741420262593        5.923920432267
Te       28.227601987357     -154.878038319348        6.251940455737
Te       25.091201744936     -139.251772574083        5.923920432267
Te       28.227601993614     -143.388390630838        6.251940455737
Te       25.091201751192     -127.762124885573        5.923920432267
Te       28.227601999870     -131.898742942328        6.251940455737
Te       25.091201757448     -116.272477197062        5.923920432267
Te       28.227602006126     -120.409095253817        6.251940455737
Te       25.091201763704     -104.782829508552        5.923920432267
Te       28.227602012382     -108.919447565307        6.251940455737
Te       25.091201769961      -93.293181820042        5.923920432267
Te       28.227602018638      -97.429799876797        6.251940455737
Te       25.091201776217      -81.803534131531        5.923920432267
Te       28.227602031167      -85.940151763169        6.251940455737
Te       25.091201782473      -70.313886443021        5.923920432267
Te       28.227602037423      -74.450504074659        6.251940455737
Te       25.091201788729      -58.824238754511        5.923920432267
Te       28.227601880587      -62.960856386149        6.251940455737
Te       25.091201794985      -47.334591066000        5.923920432267
Te       28.227601886843      -51.471208697638        6.251940455737
Te       25.091201801241      -35.844943377490        5.923920432267
Te       28.227601893099      -39.981561009128        6.251940455737
Te       25.091201807498      -24.355295688980        5.923920432267
Te       28.227601899355      -28.491913320618        6.251940455737
Te       25.091201813754      -12.865648000469        5.923920432267
Te       28.227601905611      -17.002265632107        6.251940455737
Te       25.091201656917       -1.376000311959        5.923920432267
Te       28.227601911868       -5.512617943597        6.251940455737
Te       25.091201663173       10.113647376552        5.923920432267
Te       28.227601918124        5.977029744913        6.251940455737
Te       25.091201669429       21.603295065062        5.923920432267
Te       28.227601924380       17.466677433424        6.251940455737
Te       25.091201675686       33.092942753572        5.923920432267
Te       28.227601930636       28.956325121934        6.251940455737
Te       25.091201681942       44.582590442083        5.923920432267
Te       28.227601936892       40.445972810445        6.251940455737
Te       25.091201688198       56.072238130593        5.923920432267
Te       28.227601943148       51.935620498955        6.251940455737
Te       25.091201694454       67.561885819103        5.923920432267
Te       28.227601949405       63.425268187465        6.251940455737
Te       25.091201700710       79.051533507614        5.923920432267
Te       28.227601955661       74.914915875976        6.251940455737
Te       25.091201706966       90.541181196124        5.923920432267
Te       28.227601961917       86.404563564486        6.251940455737
Te       25.091201713223      102.030828884634        5.923920432267
Te       28.227601968173       97.894211252996        6.251940455737
Te       25.091201725752      113.520476998262        5.923920432267
Te       28.227601974429      109.383858941507        6.251940455737
Te       25.091201732008      125.010124686772        5.923920432267
Te       28.227601980685      120.873506630017        6.251940455737
Te       25.091201738264      136.499772375282        5.923920432267
Te       28.227601986942      132.363154318527        6.251940455737
Te       25.091201744520      147.989420063793        5.923920432267
Te       28.227601993198      143.852802007038        6.251940455737
Te       25.091201750776      159.479067752303        5.923920432267
Te       28.227601999454      155.342449695548        6.251940455737
Te       25.091201757032      170.968715440813        5.923920432267
Te       28.227602005710      166.832097384058        6.251940455737
Te       25.091201763289      182.458363129324        5.923920432267
Te       28.227602011966      178.321745072569        6.251940455737
Te       25.091201769545      193.948010817834        5.923920432267
Te       28.227602018222      189.811392761079        6.251940455737
Te       25.091201775801      205.437658506344        5.923920432267
Te       28.227602024479      201.301040449589        6.251940455737
Te       18.818401348057     -208.189658705145        5.923920432267
Te       21.954801596735     -212.326276761900        6.251940455737
Te       18.818401354313     -196.700011016635        5.923920432267
Te       21.954801439898     -200.836629073390        6.251940455737
Te       18.818401360569     -185.210363328124        5.923920432267
Te       21.954801446154     -189.346981384879        6.251940455737
Te       18.818401366826     -173.720715639614        5.923920432267
Te       21.954801452410     -177.857333696369        6.251940455737
Te       18.818401373082     -162.231067951104        5.923920432267
Te       21.954801458667     -166.367686007859        6.251940455737
Te       18.818401379338     -150.741420262593        5.923920432267
Te       21.954801464923     -154.878038319348        6.251940455737
Te       18.818401385594     -139.251772574083        5.923920432267
Te       21.954801471179     -143.388390630838        6.251940455737
Te       18.818401228757     -127.762124885573        5.923920432267
Te       21.954801477435     -131.898742942328        6.251940455737
Te       18.818401235014     -116.272477197062        5.923920432267
Te       21.954801483691     -120.409095253817        6.251940455737
Te       18.818401241270     -104.782829508552        5.923920432267
Te       21.954801489947     -108.919447565307        6.251940455737
Te       18.818401247526      -93.293181820042        5.923920432267
Te       21.954801496204      -97.429799876797        6.251940455737
Te       18.818401253782      -81.803534131531        5.923920432267
Te       21.954801508733      -85.940151763169        6.251940455737
Te       18.818401260038      -70.313886443021        5.923920432267
Te       21.954801514989      -74.450504074659        6.251940455737
Te       18.818401266295      -58.824238754511        5.923920432267
Te       21.954801521245      -62.960856386149        6.251940455737
Te       18.818401272551      -47.334591066000        5.923920432267
Te       21.954801527501      -51.471208697638        6.251940455737
Te       18.818401278807      -35.844943377490        5.923920432267
Te       21.954801533757      -39.981561009128        6.251940455737
Te       18.818401285063      -24.355295688980        5.923920432267
Te       21.954801540013      -28.491913320618        6.251940455737
Te       18.818401291319      -12.865648000469        5.923920432267
Te       21.954801546270      -17.002265632107        6.251940455737
Te       18.818401297575       -1.376000311959        5.923920432267
Te       21.954801552526       -5.512617943597        6.251940455737
Te       18.818401303832       10.113647376552        5.923920432267
Te       21.954801558782        5.977029744913        6.251940455737
Te       18.818401310088       21.603295065062        5.923920432267
Te       21.954801565038       17.466677433424        6.251940455737
Te       18.818401316344       33.092942753572        5.923920432267
Te       21.954801571294       28.956325121934        6.251940455737
Te       18.818401322600       44.582590442083        5.923920432267
Te       21.954801577551       40.445972810445        6.251940455737
Te       18.818401328856       56.072238130593        5.923920432267
Te       21.954801583807       51.935620498955        6.251940455737
Te       18.818401335112       67.561885819103        5.923920432267
Te       21.954801590063       63.425268187465        6.251940455737
Te       18.818401341369       79.051533507614        5.923920432267
Te       21.954801596319       74.914915875976        6.251940455737
Te       18.818401347625       90.541181196124        5.923920432267
Te       21.954801602575       86.404563564486        6.251940455737
Te       18.818401353881      102.030828884634        5.923920432267
Te       21.954801445739       97.894211252996        6.251940455737
Te       18.818401366410      113.520476998262        5.923920432267
Te       21.954801451995      109.383858941507        6.251940455737
Te       18.818401372666      125.010124686772        5.923920432267
Te       21.954801458251      120.873506630017        6.251940455737
Te       18.818401378922      136.499772375282        5.923920432267
Te       21.954801464507      132.363154318527        6.251940455737
Te       18.818401385178      147.989420063793        5.923920432267
Te       21.954801470763      143.852802007038        6.251940455737
Te       18.818401228342      159.479067752303        5.923920432267
Te       21.954801477019      155.342449695548        6.251940455737
Te       18.818401234598      170.968715440813        5.923920432267
Te       21.954801483276      166.832097384058        6.251940455737
Te       18.818401240854      182.458363129324        5.923920432267
Te       21.954801489532      178.321745072569        6.251940455737
Te       18.818401247110      193.948010817834        5.923920432267
Te       21.954801495788      189.811392761079        6.251940455737
Te       18.818401253366      205.437658506344        5.923920432267
Te       21.954801502044      201.301040449589        6.251940455737
Te       12.545600825623     -208.189658705145        5.923920432267
Te       15.682001074300     -212.326276761900        6.251940455737
Te       12.545600831879     -196.700011016635        5.923920432267
Te       15.682001080556     -200.836629073390        6.251940455737
Te       12.545600838135     -185.210363328124        5.923920432267
Te       15.682001086813     -189.346981384879        6.251940455737
Te       12.545600844391     -173.720715639614        5.923920432267
Te       15.682001093069     -177.857333696369        6.251940455737
Te       12.545600850647     -162.231067951104        5.923920432267
Te       15.682001099325     -166.367686007859        6.251940455737
Te       12.545600856903     -150.741420262593        5.923920432267
Te       15.682001105581     -154.878038319348        6.251940455737
Te       12.545600863160     -139.251772574083        5.923920432267
Te       15.682001111837     -143.388390630838        6.251940455737
Te       12.545600869416     -127.762124885573        5.923920432267
Te       15.682001118093     -131.898742942328        6.251940455737
Te       12.545600875672     -116.272477197062        5.923920432267
Te       15.682001124350     -120.409095253817        6.251940455737
Te       12.545600881928     -104.782829508552        5.923920432267
Te       15.682001130606     -108.919447565307        6.251940455737
Te       12.545600888184      -93.293181820042        5.923920432267
Te       15.682001136862      -97.429799876797        6.251940455737
Te       12.545600894440      -81.803534131531        5.923920432267
Te       15.682001149391      -85.940151763169        6.251940455737
Te       12.545600900697      -70.313886443021        5.923920432267
Te       15.682001155647      -74.450504074659        6.251940455737
Te       12.545600906953      -58.824238754511        5.923920432267
Te       15.682001161903      -62.960856386149        6.251940455737
Te       12.545600913209      -47.334591066000        5.923920432267
Te       15.682001168159      -51.471208697638        6.251940455737
Te       12.545600919465      -35.844943377490        5.923920432267
Te       15.682001011323      -39.981561009128        6.251940455737
Te       12.545600925721      -24.355295688980        5.923920432267
Te       15.682001017579      -28.491913320618        6.251940455737
Te       12.545600931977      -12.865648000469        5.923920432267
Te       15.682001023835      -17.002265632107        6.251940455737
Te       12.545600938234       -1.376000311959        5.923920432267
Te       15.682001030091       -5.512617943597        6.251940455737
Te       12.545600944490       10.113647376552        5.923920432267
Te       15.682001036347        5.977029744913        6.251940455737
Te       12.545600787653       21.603295065062        5.923920432267
Te       15.682001042604       17.466677433424        6.251940455737
Te       12.545600793909       33.092942753572        5.923920432267
Te       15.682001048860       28.956325121934        6.251940455737
Te       12.545600800165       44.582590442083        5.923920432267
Te       15.682001055116       40.445972810445        6.251940455737
Te       12.545600806422       56.072238130593        5.923920432267
Te       15.682001061372       51.935620498955        6.251940455737
Te       12.545600812678       67.561885819103        5.923920432267
Te       15.682001067628       63.425268187465        6.251940455737
Te       12.545600818934       79.051533507614        5.923920432267
Te       15.682001073884       74.914915875976        6.251940455737
Te       12.545600825190       90.541181196124        5.923920432267
Te       15.682001080141       86.404563564486        6.251940455737
Te       12.545600831446      102.030828884634        5.923920432267
Te       15.682001086397       97.894211252996        6.251940455737
Te       12.545600843975      113.520476998262        5.923920432267
Te       15.682001092653      109.383858941507        6.251940455737
Te       12.545600850231      125.010124686772        5.923920432267
Te       15.682001098909      120.873506630017        6.251940455737
Te       12.545600856488      136.499772375282        5.923920432267
Te       15.682001105165      132.363154318527        6.251940455737
Te       12.545600862744      147.989420063793        5.923920432267
Te       15.682001111421      143.852802007038        6.251940455737
Te       12.545600869000      159.479067752303        5.923920432267
Te       15.682001117678      155.342449695548        6.251940455737
Te       12.545600875256      170.968715440813        5.923920432267
Te       15.682001123934      166.832097384058        6.251940455737
Te       12.545600881512      182.458363129324        5.923920432267
Te       15.682001130190      178.321745072569        6.251940455737
Te       12.545600887768      193.948010817834        5.923920432267
Te       15.682001136446      189.811392761079        6.251940455737
Te       12.545600894025      205.437658506344        5.923920432267
Te       15.682001142702      201.301040449589        6.251940455737
Te        6.272800466281     -208.189658705145        5.923920432267
Te        9.409200714958     -212.326276761900        6.251940455737
Te        6.272800472537     -196.700011016635        5.923920432267
Te        9.409200721215     -200.836629073390        6.251940455737
Te        6.272800478793     -185.210363328124        5.923920432267
Te        9.409200727471     -189.346981384879        6.251940455737
Te        6.272800485049     -173.720715639614        5.923920432267
Te        9.409200570634     -177.857333696369        6.251940455737
Te        6.272800491305     -162.231067951104        5.923920432267
Te        9.409200576890     -166.367686007859        6.251940455737
Te        6.272800497562     -150.741420262593        5.923920432267
Te        9.409200583146     -154.878038319348        6.251940455737
Te        6.272800503818     -139.251772574083        5.923920432267
Te        9.409200589403     -143.388390630838        6.251940455737
Te        6.272800510074     -127.762124885573        5.923920432267
Te        9.409200595659     -131.898742942328        6.251940455737
Te        6.272800516330     -116.272477197062        5.923920432267
Te        9.409200601915     -120.409095253817        6.251940455737
Te        6.272800359493     -104.782829508552        5.923920432267
Te        9.409200608171     -108.919447565307        6.251940455737
Te        6.272800365750      -93.293181820042        5.923920432267
Te        9.409200614427      -97.429799876797        6.251940455737
Te        6.272800372006      -81.803534131531        5.923920432267
Te        9.409200626956      -85.940151763169        6.251940455737
Te        6.272800378262      -70.313886443021        5.923920432267
Te        9.409200633212      -74.450504074659        6.251940455737
Te        6.272800384518      -58.824238754511        5.923920432267
Te        9.409200639469      -62.960856386149        6.251940455737
Te        6.272800390774      -47.334591066000        5.923920432267
Te        9.409200645725      -51.471208697638        6.251940455737
Te        6.272800397030      -35.844943377490        5.923920432267
Te        9.409200651981      -39.981561009128        6.251940455737
Te        6.272800403287      -24.355295688980        5.923920432267
Te        9.409200658237      -28.491913320618        6.251940455737
Te        6.272800409543      -12.865648000469        5.923920432267
Te        9.409200664493      -17.002265632107        6.251940455737
Te        6.272800415799       -1.376000311959        5.923920432267
Te        9.409200670749       -5.512617943597        6.251940455737
Te        6.272800422055       10.113647376552        5.923920432267
Te        9.409200677006        5.977029744913        6.251940455737
Te        6.272800428311       21.603295065062        5.923920432267
Te        9.409200683262       17.466677433424        6.251940455737
Te        6.272800434567       33.092942753572        5.923920432267
Te        9.409200689518       28.956325121934        6.251940455737
Te        6.272800440824       44.582590442083        5.923920432267
Te        9.409200695774       40.445972810445        6.251940455737
Te        6.272800447080       56.072238130593        5.923920432267
Te        9.409200702030       51.935620498955        6.251940455737
Te        6.272800453336       67.561885819103        5.923920432267
Te        9.409200708286       63.425268187465        6.251940455737
Te        6.272800459592       79.051533507614        5.923920432267
Te        9.409200714543       74.914915875976        6.251940455737
Te        6.272800465848       90.541181196124        5.923920432267
Te        9.409200720799       86.404563564486        6.251940455737
Te        6.272800472104      102.030828884634        5.923920432267
Te        9.409200727055       97.894211252996        6.251940455737
Te        6.272800484633      113.520476998262        5.923920432267
Te        9.409200733311      109.383858941507        6.251940455737
Te        6.272800490890      125.010124686772        5.923920432267
Te        9.409200576474      120.873506630017        6.251940455737
Te        6.272800497146      136.499772375282        5.923920432267
Te        9.409200582731      132.363154318527        6.251940455737
Te        6.272800503402      147.989420063793        5.923920432267
Te        9.409200588987      143.852802007038        6.251940455737
Te        6.272800509658      159.479067752303        5.923920432267
Te        9.409200595243      155.342449695548        6.251940455737
Te        6.272800515914      170.968715440813        5.923920432267
Te        9.409200601499      166.832097384058        6.251940455737
Te        6.272800359078      182.458363129324        5.923920432267
Te        9.409200607755      178.321745072569        6.251940455737
Te        6.272800365334      193.948010817834        5.923920432267
Te        9.409200614012      189.811392761079        6.251940455737
Te        6.272800371590      205.437658506344        5.923920432267
Te        9.409200620268      201.301040449589        6.251940455737
Te       -0.000000056154     -208.189658705145        5.923920432267
Te        3.136400192524     -212.326276761900        6.251940455737
Te       -0.000000049898     -196.700011016635        5.923920432267
Te        3.136400198780     -200.836629073390        6.251940455737
Te       -0.000000043642     -185.210363328124        5.923920432267
Te        3.136400205036     -189.346981384879        6.251940455737
Te       -0.000000037385     -173.720715639614        5.923920432267
Te        3.136400211292     -177.857333696369        6.251940455737
Te       -0.000000031129     -162.231067951104        5.923920432267
Te        3.136400217549     -166.367686007859        6.251940455737
Te       -0.000000024873     -150.741420262593        5.923920432267
Te        3.136400223805     -154.878038319348        6.251940455737
Te       -0.000000018617     -139.251772574083        5.923920432267
Te        3.136400230061     -143.388390630838        6.251940455737
Te       -0.000000012361     -127.762124885573        5.923920432267
Te        3.136400236317     -131.898742942328        6.251940455737
Te       -0.000000006105     -116.272477197062        5.923920432267
Te        3.136400242573     -120.409095253817        6.251940455737
Te        0.000000000152     -104.782829508552        5.923920432267
Te        3.136400248829     -108.919447565307        6.251940455737
Te        0.000000006408      -93.293181820042        5.923920432267
Te        3.136400255086      -97.429799876797        6.251940455737
Te        0.000000012664      -81.803534131531        5.923920432267
Te        3.136400267614      -85.940151763169        6.251940455737
Te        0.000000018920      -70.313886443021        5.923920432267
Te        3.136400273871      -74.450504074659        6.251940455737
Te        0.000000025176      -58.824238754511        5.923920432267
Te        3.136400280127      -62.960856386149        6.251940455737
Te        0.000000031433      -47.334591066000        5.923920432267
Te        3.136400286383      -51.471208697638        6.251940455737
Te        0.000000037689      -35.844943377490        5.923920432267
Te        3.136400292639      -39.981561009128        6.251940455737
Te        0.000000043945      -24.355295688980        5.923920432267
Te        3.136400298895      -28.491913320618        6.251940455737
Te        0.000000050201      -12.865648000469        5.923920432267
Te        3.136400142059      -17.002265632107        6.251940455737
Te        0.000000056457       -1.376000311959        5.923920432267
Te        3.136400148315       -5.512617943597        6.251940455737
Te        0.000000062713       10.113647376552        5.923920432267
Te        3.136400154571        5.977029744913        6.251940455737
Te        0.000000068970       21.603295065062        5.923920432267
Te        3.136400160827       17.466677433424        6.251940455737
Te        0.000000075226       33.092942753572        5.923920432267
Te        3.136400167083       28.956325121934        6.251940455737
Te       -0.000000081611       44.582590442083        5.923920432267
Te        3.136400173340       40.445972810445        6.251940455737
Te       -0.000000075355       56.072238130593        5.923920432267
Te        3.136400179596       51.935620498955        6.251940455737
Te       -0.000000069099       67.561885819103        5.923920432267
Te        3.136400185852       63.425268187465        6.251940455737
Te       -0.000000062842       79.051533507614        5.923920432267
Te        3.136400192108       74.914915875976        6.251940455737
Te       -0.000000056586       90.541181196124        5.923920432267
Te        3.136400198364       86.404563564486        6.251940455737
Te       -0.000000050330      102.030828884634        5.923920432267
Te        3.136400204620       97.894211252996        6.251940455737
Te       -0.000000037801      113.520476998262        5.923920432267
Te        3.136400210877      109.383858941507        6.251940455737
Te       -0.000000031545      125.010124686772        5.923920432267
Te        3.136400217133      120.873506630017        6.251940455737
Te       -0.000000025289      136.499772375282        5.923920432267
Te        3.136400223389      132.363154318527        6.251940455737
Te       -0.000000019033      147.989420063793        5.923920432267
Te        3.136400229645      143.852802007038        6.251940455737
Te       -0.000000012776      159.479067752303        5.923920432267
Te        3.136400235901      155.342449695548        6.251940455737
Te       -0.000000006520      170.968715440813        5.923920432267
Te        3.136400242157      166.832097384058        6.251940455737
Te       -0.000000000264      182.458363129324        5.923920432267
Te        3.136400248414      178.321745072569        6.251940455737
Te        0.000000005992      193.948010817834        5.923920432267
Te        3.136400254670      189.811392761079        6.251940455737
Te        0.000000012248      205.437658506344        5.923920432267
Te        3.136400260926      201.301040449589        6.251940455737
Te       -6.272800415496     -208.189658705145        5.923920432267
Te       -3.136400166818     -212.326276761900        6.251940455737
Te       -6.272800409239     -196.700011016635        5.923920432267
Te       -3.136400160562     -200.836629073390        6.251940455737
Te       -6.272800402983     -185.210363328124        5.923920432267
Te       -3.136400154306     -189.346981384879        6.251940455737
Te       -6.272800396727     -173.720715639614        5.923920432267
Te       -3.136400148049     -177.857333696369        6.251940455737
Te       -6.272800390471     -162.231067951104        5.923920432267
Te       -3.136400141793     -166.367686007859        6.251940455737
Te       -6.272800384215     -150.741420262593        5.923920432267
Te       -3.136400298630     -154.878038319348        6.251940455737
Te       -6.272800377959     -139.251772574083        5.923920432267
Te       -3.136400292374     -143.388390630838        6.251940455737
Te       -6.272800371702     -127.762124885573        5.923920432267
Te       -3.136400286118     -131.898742942328        6.251940455737
Te       -6.272800365446     -116.272477197062        5.923920432267
Te       -3.136400279861     -120.409095253817        6.251940455737
Te       -6.272800359190     -104.782829508552        5.923920432267
Te       -3.136400273605     -108.919447565307        6.251940455737
Te       -6.272800516027      -93.293181820042        5.923920432267
Te       -3.136400267349      -97.429799876797        6.251940455737
Te       -6.272800509771      -81.803534131531        5.923920432267
Te       -3.136400254820      -85.940151763169        6.251940455737
Te       -6.272800503514      -70.313886443021        5.923920432267
Te       -3.136400248564      -74.450504074659        6.251940455737
Te       -6.272800497258      -58.824238754511        5.923920432267
Te       -3.136400242308      -62.960856386149        6.251940455737
Te       -6.272800491002      -47.334591066000        5.923920432267
Te       -3.136400236052      -51.471208697638        6.251940455737
Te       -6.272800484746      -35.844943377490        5.923920432267
Te       -3.136400229795      -39.981561009128        6.251940455737
Te       -6.272800478490      -24.355295688980        5.923920432267
Te       -3.136400223539      -28.491913320618        6.251940455737
Te       -6.272800472234      -12.865648000469        5.923920432267
Te       -3.136400217283      -17.002265632107        6.251940455737
Te       -6.272800465977       -1.376000311959        5.923920432267
Te       -3.136400211027       -5.512617943597        6.251940455737
Te       -6.272800459721       10.113647376552        5.923920432267
Te       -3.136400204771        5.977029744913        6.251940455737
Te       -6.272800453465       21.603295065062        5.923920432267
Te       -3.136400198515       17.466677433424        6.251940455737
Te       -6.272800447209       33.092942753572        5.923920432267
Te       -3.136400192258       28.956325121934        6.251940455737
Te       -6.272800440953       44.582590442083        5.923920432267
Te       -3.136400186002       40.445972810445        6.251940455737
Te       -6.272800434697       56.072238130593        5.923920432267
Te       -3.136400179746       51.935620498955        6.251940455737
Te       -6.272800428440       67.561885819103        5.923920432267
Te       -3.136400173490       63.425268187465        6.251940455737
Te       -6.272800422184       79.051533507614        5.923920432267
Te       -3.136400167234       74.914915875976        6.251940455737
Te       -6.272800415928       90.541181196124        5.923920432267
Te       -3.136400160978       86.404563564486        6.251940455737
Te       -6.272800409672      102.030828884634        5.923920432267
Te       -3.136400154721       97.894211252996        6.251940455737
Te       -6.272800397143      113.520476998262        5.923920432267
Te       -3.136400148465      109.383858941507        6.251940455737
Te       -6.272800390887      125.010124686772        5.923920432267
Te       -3.136400142209      120.873506630017        6.251940455737
Te       -6.272800384631      136.499772375282        5.923920432267
Te       -3.136400299046      132.363154318527        6.251940455737
Te       -6.272800378374      147.989420063793        5.923920432267
Te       -3.136400292790      143.852802007038        6.251940455737
Te       -6.272800372118      159.479067752303        5.923920432267
Te       -3.136400286533      155.342449695548        6.251940455737
Te       -6.272800365862      170.968715440813        5.923920432267
Te       -3.136400280277      166.832097384058        6.251940455737
Te       -6.272800359606      182.458363129324        5.923920432267
Te       -3.136400274021      178.321745072569        6.251940455737
Te       -6.272800353350      193.948010817834        5.923920432267
Te       -3.136400267765      189.811392761079        6.251940455737
Te       -6.272800510186      205.437658506344        5.923920432267
Te       -3.136400261509      201.301040449589        6.251940455737
Te      -12.545600937930     -208.189658705145        5.923920432267
Te       -9.409200689253     -212.326276761900        6.251940455737
Te      -12.545600931674     -196.700011016635        5.923920432267
Te       -9.409200682996     -200.836629073390        6.251940455737
Te      -12.545600925418     -185.210363328124        5.923920432267
Te       -9.409200676740     -189.346981384879        6.251940455737
Te      -12.545600919162     -173.720715639614        5.923920432267
Te       -9.409200670484     -177.857333696369        6.251940455737
Te      -12.545600912906     -162.231067951104        5.923920432267
Te       -9.409200664228     -166.367686007859        6.251940455737
Te      -12.545600906649     -150.741420262593        5.923920432267
Te       -9.409200657972     -154.878038319348        6.251940455737
Te      -12.545600900393     -139.251772574083        5.923920432267
Te       -9.409200651716     -143.388390630838        6.251940455737
Te      -12.545600894137     -127.762124885573        5.923920432267
Te       -9.409200645459     -131.898742942328        6.251940455737
Te      -12.545600887881     -116.272477197062        5.923920432267
Te       -9.409200639203     -120.409095253817        6.251940455737
Te      -12.545600881625     -104.782829508552        5.923920432267
Te       -9.409200632947     -108.919447565307        6.251940455737
Te      -12.545600875369      -93.293181820042        5.923920432267
Te       -9.409200626691      -97.429799876797        6.251940455737
Te      -12.545600869112      -81.803534131531        5.923920432267
Te       -9.409200614162      -85.940151763169        6.251940455737
Te      -12.545600862856      -70.313886443021        5.923920432267
Te       -9.409200607906      -74.450504074659        6.251940455737
Te      -12.545600856600      -58.824238754511        5.923920432267
Te       -9.409200601650      -62.960856386149        6.251940455737
Te      -12.545600850344      -47.334591066000        5.923920432267
Te       -9.409200595393      -51.471208697638        6.251940455737
Te      -12.545600844088      -35.844943377490        5.923920432267
Te       -9.409200589137      -39.981561009128        6.251940455737
Te      -12.545600837832      -24.355295688980        5.923920432267
Te       -9.409200582881      -28.491913320618        6.251940455737
Te      -12.545600831575      -12.865648000469        5.923920432267
Te       -9.409200576625      -17.002265632107        6.251940455737
Te      -12.545600825319       -1.376000311959        5.923920432267
Te       -9.409200570369       -5.512617943597        6.251940455737
Te      -12.545600819063       10.113647376552        5.923920432267
Te       -9.409200727205        5.977029744913        6.251940455737
Te      -12.545600812807       21.603295065062        5.923920432267
Te       -9.409200720949       17.466677433424        6.251940455737
Te      -12.545600806551       33.092942753572        5.923920432267
Te       -9.409200714693       28.956325121934        6.251940455737
Te      -12.545600800294       44.582590442083        5.923920432267
Te       -9.409200708437       40.445972810445        6.251940455737
Te      -12.545600794038       56.072238130593        5.923920432267
Te       -9.409200702181       51.935620498955        6.251940455737
Te      -12.545600950875       67.561885819103        5.923920432267
Te       -9.409200695924       63.425268187465        6.251940455737
Te      -12.545600944619       79.051533507614        5.923920432267
Te       -9.409200689668       74.914915875976        6.251940455737
Te      -12.545600938363       90.541181196124        5.923920432267
Te       -9.409200683412       86.404563564486        6.251940455737
Te      -12.545600932106      102.030828884634        5.923920432267
Te       -9.409200677156       97.894211252996        6.251940455737
Te      -12.545600919578      113.520476998262        5.923920432267
Te       -9.409200670900      109.383858941507        6.251940455737
Te      -12.545600913321      125.010124686772        5.923920432267
Te       -9.409200664644      120.873506630017        6.251940455737
Te      -12.545600907065      136.499772375282        5.923920432267
Te       -9.409200658387      132.363154318527        6.251940455737
Te      -12.545600900809      147.989420063793        5.923920432267
Te       -9.409200652131      143.852802007038        6.251940455737
Te      -12.545600894553      159.479067752303        5.923920432267
Te       -9.409200645875      155.342449695548        6.251940455737
Te      -12.545600888297      170.968715440813        5.923920432267
Te       -9.409200639619      166.832097384058        6.251940455737
Te      -12.545600882040      182.458363129324        5.923920432267
Te       -9.409200633363      178.321745072569        6.251940455737
Te      -12.545600875784      193.948010817834        5.923920432267
Te       -9.409200627107      189.811392761079        6.251940455737
Te      -12.545600869528      205.437658506344        5.923920432267
Te       -9.409200620850      201.301040449589        6.251940455737
Te      -18.818401297272     -208.189658705145        5.923920432267
Te      -15.682001048594     -212.326276761900        6.251940455737
Te      -18.818401291016     -196.700011016635        5.923920432267
Te      -15.682001042338     -200.836629073390        6.251940455737
Te      -18.818401284760     -185.210363328124        5.923920432267
Te      -15.682001036082     -189.346981384879        6.251940455737
Te      -18.818401278503     -173.720715639614        5.923920432267
Te      -15.682001029826     -177.857333696369        6.251940455737
Te      -18.818401272247     -162.231067951104        5.923920432267
Te      -15.682001023570     -166.367686007859        6.251940455737
Te      -18.818401265991     -150.741420262593        5.923920432267
Te      -15.682001017313     -154.878038319348        6.251940455737
Te      -18.818401259735     -139.251772574083        5.923920432267
Te      -15.682001011057     -143.388390630838        6.251940455737
Te      -18.818401253479     -127.762124885573        5.923920432267
Te      -15.682001167894     -131.898742942328        6.251940455737
Te      -18.818401247223     -116.272477197062        5.923920432267
Te      -15.682001161638     -120.409095253817        6.251940455737
Te      -18.818401240966     -104.782829508552        5.923920432267
Te      -15.682001155382     -108.919447565307        6.251940455737
Te      -18.818401234710      -93.293181820042        5.923920432267
Te      -15.682001149125      -97.429799876797        6.251940455737
Te      -18.818401228454      -81.803534131531        5.923920432267
Te      -15.682001136596      -85.940151763169        6.251940455737
Te      -18.818401385291      -70.313886443021        5.923920432267
Te      -15.682001130340      -74.450504074659        6.251940455737
Te      -18.818401379035      -58.824238754511        5.923920432267
Te      -15.682001124084      -62.960856386149        6.251940455737
Te      -18.818401372778      -47.334591066000        5.923920432267
Te      -15.682001117828      -51.471208697638        6.251940455737
Te      -18.818401366522      -35.844943377490        5.923920432267
Te      -15.682001111572      -39.981561009128        6.251940455737
Te      -18.818401360266      -24.355295688980        5.923920432267
Te      -15.682001105316      -28.491913320618        6.251940455737
Te      -18.818401354010      -12.865648000469        5.923920432267
Te      -15.682001099059      -17.002265632107        6.251940455737
Te      -18.818401347754       -1.376000311959        5.923920432267
Te      -15.682001092803       -5.512617943597        6.251940455737
Te      -18.818401341498       10.113647376552        5.923920432267
Te      -15.682001086547        5.977029744913        6.251940455737
Te      -18.818401335241       21.603295065062        5.923920432267
Te      -15.682001080291       17.466677433424        6.251940455737
Te      -18.818401328985       33.092942753572        5.923920432267
Te      -15.682001074035       28.956325121934        6.251940455737
Te      -18.818401322729       44.582590442083        5.923920432267
Te      -15.682001067779       40.445972810445        6.251940455737
Te      -18.818401316473       56.072238130593        5.923920432267
Te      -15.682001061522       51.935620498955        6.251940455737
Te      -18.818401310217       67.561885819103        5.923920432267
Te      -15.682001055266       63.425268187465        6.251940455737
Te      -18.818401303961       79.051533507614        5.923920432267
Te      -15.682001049010       74.914915875976        6.251940455737
Te      -18.818401297704       90.541181196124        5.923920432267
Te      -15.682001042754       86.404563564486        6.251940455737
Te      -18.818401291448      102.030828884634        5.923920432267
Te      -15.682001036498       97.894211252996        6.251940455737
Te      -18.818401278919      113.520476998262        5.923920432267
Te      -15.682001030242      109.383858941507        6.251940455737
Te      -18.818401272663      125.010124686772        5.923920432267
Te      -15.682001023985      120.873506630017        6.251940455737
Te      -18.818401266407      136.499772375282        5.923920432267
Te      -15.682001017729      132.363154318527        6.251940455737
Te      -18.818401260151      147.989420063793        5.923920432267
Te      -15.682001011473      143.852802007038        6.251940455737
Te      -18.818401253895      159.479067752303        5.923920432267
Te      -15.682001168310      155.342449695548        6.251940455737
Te      -18.818401247638      170.968715440813        5.923920432267
Te      -15.682001162054      166.832097384058        6.251940455737
Te      -18.818401241382      182.458363129324        5.923920432267
Te      -15.682001155797      178.321745072569        6.251940455737
Te      -18.818401235126      193.948010817834        5.923920432267
Te      -15.682001149541      189.811392761079        6.251940455737
Te      -18.818401228870      205.437658506344        5.923920432267
Te      -15.682001143285      201.301040449589        6.251940455737
Te      -25.091201656614     -208.189658705145        5.923920432267
Te      -21.954801571029     -212.326276761900        6.251940455737
Te      -25.091201813450     -196.700011016635        5.923920432267
Te      -21.954801564773     -200.836629073390        6.251940455737
Te      -25.091201807194     -185.210363328124        5.923920432267
Te      -21.954801558517     -189.346981384879        6.251940455737
Te      -25.091201800938     -173.720715639614        5.923920432267
Te      -21.954801552260     -177.857333696369        6.251940455737
Te      -25.091201794682     -162.231067951104        5.923920432267
Te      -21.954801546004     -166.367686007859        6.251940455737
Te      -25.091201788426     -150.741420262593        5.923920432267
Te      -21.954801539748     -154.878038319348        6.251940455737
Te      -25.091201782170     -139.251772574083        5.923920432267
Te      -21.954801533492     -143.388390630838        6.251940455737
Te      -25.091201775913     -127.762124885573        5.923920432267
Te      -21.954801527236     -131.898742942328        6.251940455737
Te      -25.091201769657     -116.272477197062        5.923920432267
Te      -21.954801520980     -120.409095253817        6.251940455737
Te      -25.091201763401     -104.782829508552        5.923920432267
Te      -21.954801514723     -108.919447565307        6.251940455737
Te      -25.091201757145      -93.293181820042        5.923920432267
Te      -21.954801508467      -97.429799876797        6.251940455737
Te      -25.091201750889      -81.803534131531        5.923920432267
Te      -21.954801495938      -85.940151763169        6.251940455737
Te      -25.091201744633      -70.313886443021        5.923920432267
Te      -21.954801489682      -74.450504074659        6.251940455737
Te      -25.091201738376      -58.824238754511        5.923920432267
Te      -21.954801483426      -62.960856386149        6.251940455737
Te      -25.091201732120      -47.334591066000        5.923920432267
Te      -21.954801477170      -51.471208697638        6.251940455737
Te      -25.091201725864      -35.844943377490        5.923920432267
Te      -21.954801470914      -39.981561009128        6.251940455737
Te      -25.091201719608      -24.355295688980        5.923920432267
Te      -21.954801464657      -28.491913320618        6.251940455737
Te      -25.091201713352      -12.865648000469        5.923920432267
Te      -21.954801458401      -17.002265632107        6.251940455737
Te      -25.091201707096       -1.376000311959        5.923920432267
Te      -21.954801452145       -5.512617943597        6.251940455737
Te      -25.091201700839       10.113647376552        5.923920432267
Te      -21.954801445889        5.977029744913        6.251940455737
Te      -25.091201694583       21.603295065062        5.923920432267
Te      -21.954801439633       17.466677433424        6.251940455737
Te      -25.091201688327       33.092942753572        5.923920432267
Te      -21.954801596469       28.956325121934        6.251940455737
Te      -25.091201682071       44.582590442083        5.923920432267
Te      -21.954801590213       40.445972810445        6.251940455737
Te      -25.091201675815       56.072238130593        5.923920432267
Te      -21.954801583957       51.935620498955        6.251940455737
Te      -25.091201669559       67.561885819103        5.923920432267
Te      -21.954801577701       63.425268187465        6.251940455737
Te      -25.091201663302       79.051533507614        5.923920432267
Te      -21.954801571445       74.914915875976        6.251940455737
Te      -25.091201820139       90.541181196124        5.923920432267
Te      -21.954801565189       86.404563564486        6.251940455737
Te      -25.091201813883      102.030828884634        5.923920432267
Te      -21.954801558932       97.894211252996        6.251940455737
Te      -25.091201801354      113.520476998262        5.923920432267
Te      -21.954801552676      109.383858941507        6.251940455737
Te      -25.091201795098      125.010124686772        5.923920432267
Te      -21.954801546420      120.873506630017        6.251940455737
Te      -25.091201788842      136.499772375282        5.923920432267
Te      -21.954801540164      132.363154318527        6.251940455737
Te      -25.091201782585      147.989420063793        5.923920432267
Te      -21.954801533908      143.852802007038        6.251940455737
Te      -25.091201776329      159.479067752303        5.923920432267
Te      -21.954801527652      155.342449695548        6.251940455737
Te      -25.091201770073      170.968715440813        5.923920432267
Te      -21.954801521395      166.832097384058        6.251940455737
Te      -25.091201763817      182.458363129324        5.923920432267
Te      -21.954801515139      178.321745072569        6.251940455737
Te      -25.091201757561      193.948010817834        5.923920432267
Te      -21.954801508883      189.811392761079        6.251940455737
Te      -25.091201751305      205.437658506344        5.923920432267
Te      -21.954801502627      201.301040449589        6.251940455737
Te      -31.364002179048     -208.189658705145        5.923920432267
Te      -28.227601930371     -212.326276761900        6.251940455737
Te      -31.364002172792     -196.700011016635        5.923920432267
Te      -28.227601924115     -200.836629073390        6.251940455737
Te      -31.364002166536     -185.210363328124        5.923920432267
Te      -28.227601917858     -189.346981384879        6.251940455737
Te      -31.364002160280     -173.720715639614        5.923920432267
Te      -28.227601911602     -177.857333696369        6.251940455737
Te      -31.364002154024     -162.231067951104        5.923920432267
Te      -28.227601905346     -166.367686007859        6.251940455737
Te      -31.364002147768     -150.741420262593        5.923920432267
Te      -28.227601899090     -154.878038319348        6.251940455737
Te      -31.364002141511     -139.251772574083        5.923920432267
Te      -28.227601892834     -143.388390630838        6.251940455737
Te      -31.364002135255     -127.762124885573        5.923920432267
Te      -28.227601886577     -131.898742942328        6.251940455737
Te      -31.364002128999     -116.272477197062        5.923920432267
Te      -28.227601880321     -120.409095253817        6.251940455737
Te      -31.364002122743     -104.782829508552        5.923920432267
Te      -28.227602037158     -108.919447565307        6.251940455737
Te      -31.364002116487      -93.293181820042        5.923920432267
Te      -28.227602030902      -97.429799876797        6.251940455737
Te      -31.364002110231      -81.803534131531        5.923920432267
Te      -28.227602018373      -85.940151763169        6.251940455737
Te      -31.364002103974      -70.313886443021        5.923920432267
Te      -28.227602012117      -74.450504074659        6.251940455737
Te      -31.364002097718      -58.824238754511        5.923920432267
Te      -28.227602005860      -62.960856386149        6.251940455737
Te      -31.364002254555      -47.334591066000        5.923920432267
Te      -28.227601999604      -51.471208697638        6.251940455737
Te      -31.364002248299      -35.844943377490        5.923920432267
Te      -28.227601993348      -39.981561009128        6.251940455737
Te      -31.364002242042      -24.355295688980        5.923920432267
Te      -28.227601987092      -28.491913320618        6.251940455737
Te      -31.364002235786      -12.865648000469        5.923920432267
Te      -28.227601980836      -17.002265632107        6.251940455737
Te      -31.364002229530       -1.376000311959        5.923920432267
Te      -28.227601974580       -5.512617943597        6.251940455737
Te      -31.364002223274       10.113647376552        5.923920432267
Te      -28.227601968323        5.977029744913        6.251940455737
Te      -31.364002217018       21.603295065062        5.923920432267
Te      -28.227601962067       17.466677433424        6.251940455737
Te      -31.364002210762       33.092942753572        5.923920432267
Te      -28.227601955811       28.956325121934        6.251940455737
Te      -31.364002204505       44.582590442083        5.923920432267
Te      -28.227601949555       40.445972810445        6.251940455737
Te      -31.364002198249       56.072238130593        5.923920432267
Te      -28.227601943299       51.935620498955        6.251940455737
Te      -31.364002191993       67.561885819103        5.923920432267
Te      -28.227601937043       63.425268187465        6.251940455737
Te      -31.364002185737       79.051533507614        5.923920432267
Te      -28.227601930786       74.914915875976        6.251940455737
Te      -31.364002179481       90.541181196124        5.923920432267
Te      -28.227601924530       86.404563564486        6.251940455737
Te      -31.364002173225      102.030828884634        5.923920432267
Te      -28.227601918274       97.894211252996        6.251940455737
Te      -31.364002160696      113.520476998262        5.923920432267
Te      -28.227601912018      109.383858941507        6.251940455737
Te      -31.364002154439      125.010124686772        5.923920432267
Te      -28.227601905762      120.873506630017        6.251940455737
Te      -31.364002148183      136.499772375282        5.923920432267
Te      -28.227601899506      132.363154318527        6.251940455737
Te      -31.364002141927      147.989420063793        5.923920432267
Te      -28.227601893249      143.852802007038        6.251940455737
Te      -31.364002135671      159.479067752303        5.923920432267
Te      -28.227601886993      155.342449695548        6.251940455737
Te      -31.364002129415      170.968715440813        5.923920432267
Te      -28.227601880737      166.832097384058        6.251940455737
Te      -31.364002123159      182.458363129324        5.923920432267
Te      -28.227602037574      178.321745072569        6.251940455737
Te      -31.364002116902      193.948010817834        5.923920432267
Te      -28.227602031318      189.811392761079        6.251940455737
Te      -31.364002110646      205.437658506344        5.923920432267
Te      -28.227602025061      201.301040449589        6.251940455737
Te      -37.636802538390     -208.189658705145        5.923920432267
Te      -34.500402452805     -212.326276761900        6.251940455737
Te      -37.636802532134     -196.700011016635        5.923920432267
Te      -34.500402446549     -200.836629073390        6.251940455737
Te      -37.636802525878     -185.210363328124        5.923920432267
Te      -34.500402440293     -189.346981384879        6.251940455737
Te      -37.636802682714     -173.720715639614        5.923920432267
Te      -34.500402434037     -177.857333696369        6.251940455737
Te      -37.636802676458     -162.231067951104        5.923920432267
Te      -34.500402427781     -166.367686007859        6.251940455737
Te      -37.636802670202     -150.741420262593        5.923920432267
Te      -34.500402421524     -154.878038319348        6.251940455737
Te      -37.636802663946     -139.251772574083        5.923920432267
Te      -34.500402415268     -143.388390630838        6.251940455737
Te      -37.636802657690     -127.762124885573        5.923920432267
Te      -34.500402409012     -131.898742942328        6.251940455737
Te      -37.636802651434     -116.272477197062        5.923920432267
Te      -34.500402402756     -120.409095253817        6.251940455737
Te      -37.636802645177     -104.782829508552        5.923920432267
Te      -34.500402396500     -108.919447565307        6.251940455737
Te      -37.636802638921      -93.293181820042        5.923920432267
Te      -34.500402390244      -97.429799876797        6.251940455737
Te      -37.636802632665      -81.803534131531        5.923920432267
Te      -34.500402377715      -85.940151763169        6.251940455737
Te      -37.636802626409      -70.313886443021        5.923920432267
Te      -34.500402371458      -74.450504074659        6.251940455737
Te      -37.636802620153      -58.824238754511        5.923920432267
Te      -34.500402365202      -62.960856386149        6.251940455737
Te      -37.636802613897      -47.334591066000        5.923920432267
Te      -34.500402358946      -51.471208697638        6.251940455737
Te      -37.636802607640      -35.844943377490        5.923920432267
Te      -34.500402352690      -39.981561009128        6.251940455737
Te      -37.636802601384      -24.355295688980        5.923920432267
Te      -34.500402346434      -28.491913320618        6.251940455737
Te      -37.636802595128      -12.865648000469        5.923920432267
Te      -34.500402340178      -17.002265632107        6.251940455737
Te      -37.636802588872       -1.376000311959        5.923920432267
Te      -34.500402333921       -5.512617943597        6.251940455737
Te      -37.636802582616       10.113647376552        5.923920432267
Te      -34.500402327665        5.977029744913        6.251940455737
Te      -37.636802576360       21.603295065062        5.923920432267
Te      -34.500402321409       17.466677433424        6.251940455737
Te      -37.636802570103       33.092942753572        5.923920432267
Te      -34.500402315153       28.956325121934        6.251940455737
Te      -37.636802563847       44.582590442083        5.923920432267
Te      -34.500402308897       40.445972810445        6.251940455737
Te      -37.636802557591       56.072238130593        5.923920432267
Te      -34.500402465733       51.935620498955        6.251940455737
Te      -37.636802551335       67.561885819103        5.923920432267
Te      -34.500402459477       63.425268187465        6.251940455737
Te      -37.636802545079       79.051533507614        5.923920432267
Te      -34.500402453221       74.914915875976        6.251940455737
Te      -37.636802538823       90.541181196124        5.923920432267
Te      -34.500402446965       86.404563564486        6.251940455737
Te      -37.636802532566      102.030828884634        5.923920432267
Te      -34.500402440709       97.894211252996        6.251940455737
Te      -37.636802683130      113.520476998262        5.923920432267
Te      -34.500402434453      109.383858941507        6.251940455737
Te      -37.636802676874      125.010124686772        5.923920432267
Te      -34.500402428196      120.873506630017        6.251940455737
Te      -37.636802670618      136.499772375282        5.923920432267
Te      -34.500402421940      132.363154318527        6.251940455737
Te      -37.636802664362      147.989420063793        5.923920432267
Te      -34.500402415684      143.852802007038        6.251940455737
Te      -37.636802658106      159.479067752303        5.923920432267
Te      -34.500402409428      155.342449695548        6.251940455737
Te      -37.636802651849      170.968715440813        5.923920432267
Te      -34.500402403172      166.832097384058        6.251940455737
Te      -37.636802645593      182.458363129324        5.923920432267
Te      -34.500402396916      178.321745072569        6.251940455737
Te      -37.636802639337      193.948010817834        5.923920432267
Te      -34.500402390659      189.811392761079        6.251940455737
Te      -37.636802633081      205.437658506344        5.923920432267
Te      -34.500402384403      201.301040449589        6.251940455737
Te      -43.909603060825     -208.189658705145        5.923920432267
Te      -40.773202812147     -212.326276761900        6.251940455737
Te      -43.909603054569     -196.700011016635        5.923920432267
Te      -40.773202805891     -200.836629073390        6.251940455737
Te      -43.909603048312     -185.210363328124        5.923920432267
Te      -40.773202799635     -189.346981384879        6.251940455737
Te      -43.909603042056     -173.720715639614        5.923920432267
Te      -40.773202793379     -177.857333696369        6.251940455737
Te      -43.909603035800     -162.231067951104        5.923920432267
Te      -40.773202787122     -166.367686007859        6.251940455737
Te      -43.909603029544     -150.741420262593        5.923920432267
Te      -40.773202780866     -154.878038319348        6.251940455737
Te      -43.909603023288     -139.251772574083        5.923920432267
Te      -40.773202774610     -143.388390630838        6.251940455737
Te      -43.909603017032     -127.762124885573        5.923920432267
Te      -40.773202768354     -131.898742942328        6.251940455737
Te      -43.909603010775     -116.272477197062        5.923920432267
Te      -40.773202762098     -120.409095253817        6.251940455737
Te      -43.909603004519     -104.782829508552        5.923920432267
Te      -40.773202755842     -108.919447565307        6.251940455737
Te      -43.909602998263      -93.293181820042        5.923920432267
Te      -40.773202749585      -97.429799876797        6.251940455737
Te      -43.909602992007      -81.803534131531        5.923920432267
Te      -40.773202900149      -85.940151763169        6.251940455737
Te      -43.909602985751      -70.313886443021        5.923920432267
Te      -40.773202893893      -74.450504074659        6.251940455737
Te      -43.909602979495      -58.824238754511        5.923920432267
Te      -40.773202887637      -62.960856386149        6.251940455737
Te      -43.909602973238      -47.334591066000        5.923920432267
Te      -40.773202881381      -51.471208697638        6.251940455737
Te      -43.909602966982      -35.844943377490        5.923920432267
Te      -40.773202875125      -39.981561009128        6.251940455737
Te      -43.909603123819      -24.355295688980        5.923920432267
Te      -40.773202868868      -28.491913320618        6.251940455737
Te      -43.909603117563      -12.865648000469        5.923920432267
Te      -40.773202862612      -17.002265632107        6.251940455737
Te      -43.909603111307       -1.376000311959        5.923920432267
Te      -40.773202856356       -5.512617943597        6.251940455737
Te      -43.909603105050       10.113647376552        5.923920432267
Te      -40.773202850100        5.977029744913        6.251940455737
Te      -43.909603098794       21.603295065062        5.923920432267
Te      -40.773202843844       17.466677433424        6.251940455737
Te      -43.909603092538       33.092942753572        5.923920432267
Te      -40.773202837588       28.956325121934        6.251940455737
Te      -43.909603086282       44.582590442083        5.923920432267
Te      -40.773202831331       40.445972810445        6.251940455737
Te      -43.909603080026       56.072238130593        5.923920432267
Te      -40.773202825075       51.935620498955        6.251940455737
Te      -43.909603073769       67.561885819103        5.923920432267
Te      -40.773202818819       63.425268187465        6.251940455737
Te      -43.909603067513       79.051533507614        5.923920432267
Te      -40.773202812563       74.914915875976        6.251940455737
Te      -43.909603061257       90.541181196124        5.923920432267
Te      -40.773202806307       86.404563564486        6.251940455737
Te      -43.909603055001      102.030828884634        5.923920432267
Te      -40.773202800051       97.894211252996        6.251940455737
Te      -43.909603042472      113.520476998262        5.923920432267
Te      -40.773202793794      109.383858941507        6.251940455737
Te      -43.909603036216      125.010124686772        5.923920432267
Te      -40.773202787538      120.873506630017        6.251940455737
Te      -43.909603029960      136.499772375282        5.923920432267
Te      -40.773202781282      132.363154318527        6.251940455737
Te      -43.909603023704      147.989420063793        5.923920432267
Te      -40.773202775026      143.852802007038        6.251940455737
Te      -43.909603017447      159.479067752303        5.923920432267
Te      -40.773202768770      155.342449695548        6.251940455737
Te      -43.909603011191      170.968715440813        5.923920432267
Te      -40.773202762513      166.832097384058        6.251940455737
Te      -43.909603004935      182.458363129324        5.923920432267
Te      -40.773202756257      178.321745072569        6.251940455737
Te      -43.909602998679      193.948010817834        5.923920432267
Te      -40.773202750001      189.811392761079        6.251940455737
Te      -43.909602992423      205.437658506344        5.923920432267
Te      -40.773202906838      201.301040449589        6.251940455737
Te      -50.182403420167     -208.189658705145        5.923920432267
Te      -47.046003334582     -212.326276761900        6.251940455737
Te      -50.182403413910     -196.700011016635        5.923920432267
Te      -47.046003328325     -200.836629073390        6.251940455737
Te      -50.182403407654     -185.210363328124        5.923920432267
Te      -47.046003322069     -189.346981384879        6.251940455737
Te      -50.182403401398     -173.720715639614        5.923920432267
Te      -47.046003315813     -177.857333696369        6.251940455737
Te      -50.182403395142     -162.231067951104        5.923920432267
Te      -47.046003309557     -166.367686007859        6.251940455737
Te      -50.182403551978     -150.741420262593        5.923920432267
Te      -47.046003303301     -154.878038319348        6.251940455737
Te      -50.182403545722     -139.251772574083        5.923920432267
Te      -47.046003297045     -143.388390630838        6.251940455737
Te      -50.182403539466     -127.762124885573        5.923920432267
Te      -47.046003290788     -131.898742942328        6.251940455737
Te      -50.182403533210     -116.272477197062        5.923920432267
Te      -47.046003284532     -120.409095253817        6.251940455737
Te      -50.182403526954     -104.782829508552        5.923920432267
Te      -47.046003278276     -108.919447565307        6.251940455737
Te      -50.182403520698      -93.293181820042        5.923920432267
Te      -47.046003272020      -97.429799876797        6.251940455737
Te      -50.182403514441      -81.803534131531        5.923920432267
Te      -47.046003259491      -85.940151763169        6.251940455737
Te      -50.182403508185      -70.313886443021        5.923920432267
Te      -47.046003253235      -74.450504074659        6.251940455737
Te      -50.182403501929      -58.824238754511        5.923920432267
Te      -47.046003246979      -62.960856386149        6.251940455737
Te      -50.182403495673      -47.334591066000        5.923920432267
Te      -47.046003240722      -51.471208697638        6.251940455737
Te      -50.182403489417      -35.844943377490        5.923920432267
Te      -47.046003234466      -39.981561009128        6.251940455737
Te      -50.182403483161      -24.355295688980        5.923920432267
Te      -47.046003228210      -28.491913320618        6.251940455737
Te      -50.182403476904      -12.865648000469        5.923920432267
Te      -47.046003221954      -17.002265632107        6.251940455737
Te      -50.182403470648       -1.376000311959        5.923920432267
Te      -47.046003215698       -5.512617943597        6.251940455737
Te      -50.182403464392       10.113647376552        5.923920432267
Te      -47.046003209442        5.977029744913        6.251940455737
Te      -50.182403458136       21.603295065062        5.923920432267
Te      -47.046003203185       17.466677433424        6.251940455737
Te      -50.182403451880       33.092942753572        5.923920432267
Te      -47.046003196929       28.956325121934        6.251940455737
Te      -50.182403445624       44.582590442083        5.923920432267
Te      -47.046003190673       40.445972810445        6.251940455737
Te      -50.182403439367       56.072238130593        5.923920432267
Te      -47.046003184417       51.935620498955        6.251940455737
Te      -50.182403433111       67.561885819103        5.923920432267
Te      -47.046003178161       63.425268187465        6.251940455737
Te      -50.182403426855       79.051533507614        5.923920432267
Te      -47.046003334997       74.914915875976        6.251940455737
Te      -50.182403420599       90.541181196124        5.923920432267
Te      -47.046003328741       86.404563564486        6.251940455737
Te      -50.182403414343      102.030828884634        5.923920432267
Te      -47.046003322485       97.894211252996        6.251940455737
Te      -50.182403401814      113.520476998262        5.923920432267
Te      -47.046003316229      109.383858941507        6.251940455737
Te      -50.182403395558      125.010124686772        5.923920432267
Te      -47.046003309973      120.873506630017        6.251940455737
Te      -50.182403552394      136.499772375282        5.923920432267
Te      -47.046003303717      132.363154318527        6.251940455737
Te      -50.182403546138      147.989420063793        5.923920432267
Te      -47.046003297460      143.852802007038        6.251940455737
Te      -50.182403539882      159.479067752303        5.923920432267
Te      -47.046003291204      155.342449695548        6.251940455737
Te      -50.182403533626      170.968715440813        5.923920432267
Te      -47.046003284948      166.832097384058        6.251940455737
Te      -50.182403527370      182.458363129324        5.923920432267
Te      -47.046003278692      178.321745072569        6.251940455737
Te      -50.182403521113      193.948010817834        5.923920432267
Te      -47.046003272436      189.811392761079        6.251940455737
Te      -50.182403514857      205.437658506344        5.923920432267
Te      -47.046003266180      201.301040449589        6.251940455737
Te      -56.455203942601     -208.189658705145        5.923920432267
Te      -53.318803693923     -212.326276761900        6.251940455737
Te      -56.455203936345     -196.700011016635        5.923920432267
Te      -53.318803687667     -200.836629073390        6.251940455737
Te      -56.455203930089     -185.210363328124        5.923920432267
Te      -53.318803681411     -189.346981384879        6.251940455737
Te      -56.455203923833     -173.720715639614        5.923920432267
Te      -53.318803675155     -177.857333696369        6.251940455737
Te      -56.455203917576     -162.231067951104        5.923920432267
Te      -53.318803668899     -166.367686007859        6.251940455737
Te      -56.455203911320     -150.741420262593        5.923920432267
Te      -53.318803662643     -154.878038319348        6.251940455737
Te      -56.455203905064     -139.251772574083        5.923920432267
Te      -53.318803656386     -143.388390630838        6.251940455737
Te      -56.455203898808     -127.762124885573        5.923920432267
Te      -53.318803650130     -131.898742942328        6.251940455737
Te      -56.455203892552     -116.272477197062        5.923920432267
Te      -53.318803643874     -120.409095253817        6.251940455737
Te      -56.455203886296     -104.782829508552        5.923920432267
Te      -53.318803637618     -108.919447565307        6.251940455737
Te      -56.455203880039      -93.293181820042        5.923920432267
Te      -53.318803631362      -97.429799876797        6.251940455737
Te      -56.455203873783      -81.803534131531        5.923920432267
Te      -53.318803618833      -85.940151763169        6.251940455737
Te      -56.455203867527      -70.313886443021        5.923920432267
Te      -53.318803612577      -74.450504074659        6.251940455737
Te      -56.455203861271      -58.824238754511        5.923920432267
Te      -53.318803769413      -62.960856386149        6.251940455737
Te      -56.455203855015      -47.334591066000        5.923920432267
Te      -53.318803763157      -51.471208697638        6.251940455737
Te      -56.455203848759      -35.844943377490        5.923920432267
Te      -53.318803756901      -39.981561009128        6.251940455737
Te      -56.455203842502      -24.355295688980        5.923920432267
Te      -53.318803750645      -28.491913320618        6.251940455737
Te      -56.455203836246      -12.865648000469        5.923920432267
Te      -53.318803744389      -17.002265632107        6.251940455737
Te      -56.455203993083       -1.376000311959        5.923920432267
Te      -53.318803738132       -5.512617943597        6.251940455737
Te      -56.455203986827       10.113647376552        5.923920432267
Te      -53.318803731876        5.977029744913        6.251940455737
Te      -56.455203980571       21.603295065062        5.923920432267
Te      -53.318803725620       17.466677433424        6.251940455737
Te      -56.455203974314       33.092942753572        5.923920432267
Te      -53.318803719364       28.956325121934        6.251940455737
Te      -56.455203968058       44.582590442083        5.923920432267
Te      -53.318803713108       40.445972810445        6.251940455737
Te      -56.455203961802       56.072238130593        5.923920432267
Te      -53.318803706852       51.935620498955        6.251940455737
Te      -56.455203955546       67.561885819103        5.923920432267
Te      -53.318803700595       63.425268187465        6.251940455737
Te      -56.455203949290       79.051533507614        5.923920432267
Te      -53.318803694339       74.914915875976        6.251940455737
Te      -56.455203943034       90.541181196124        5.923920432267
Te      -53.318803688083       86.404563564486        6.251940455737
Te      -56.455203936777      102.030828884634        5.923920432267
Te      -53.318803681827       97.894211252996        6.251940455737
Te      -56.455203924248      113.520476998262        5.923920432267
Te      -53.318803675571      109.383858941507        6.251940455737
Te      -56.455203917992      125.010124686772        5.923920432267
Te      -53.318803669315      120.873506630017        6.251940455737
Te      -56.455203911736      136.499772375282        5.923920432267
Te      -53.318803663058      132.363154318527        6.251940455737
Te      -56.455203905480      147.989420063793        5.923920432267
Te      -53.318803656802      143.852802007038        6.251940455737
Te      -56.455203899224      159.479067752303        5.923920432267
Te      -53.318803650546      155.342449695548        6.251940455737
Te      -56.455203892968      170.968715440813        5.923920432267
Te      -53.318803644290      166.832097384058        6.251940455737
Te      -56.455203886711      182.458363129324        5.923920432267
Te      -53.318803638034      178.321745072569        6.251940455737
Te      -56.455203880455      193.948010817834        5.923920432267
Te      -53.318803631778      189.811392761079        6.251940455737
Te      -56.455203874199      205.437658506344        5.923920432267
Te      -53.318803625521      201.301040449589        6.251940455737
Te      -62.728004301943     -208.189658705145        5.923920432267
Te      -59.591604053265     -212.326276761900        6.251940455737
Te      -62.728004295687     -196.700011016635        5.923920432267
Te      -59.591604210102     -200.836629073390        6.251940455737
Te      -62.728004289431     -185.210363328124        5.923920432267
Te      -59.591604203846     -189.346981384879        6.251940455737
Te      -62.728004283174     -173.720715639614        5.923920432267
Te      -59.591604197590     -177.857333696369        6.251940455737
Te      -62.728004276918     -162.231067951104        5.923920432267
Te      -59.591604191333     -166.367686007859        6.251940455737
Te      -62.728004270662     -150.741420262593        5.923920432267
Te      -59.591604185077     -154.878038319348        6.251940455737
Te      -62.728004264406     -139.251772574083        5.923920432267
Te      -59.591604178821     -143.388390630838        6.251940455737
Te      -62.728004421243     -127.762124885573        5.923920432267
Te      -59.591604172565     -131.898742942328        6.251940455737
Te      -62.728004414986     -116.272477197062        5.923920432267
Te      -59.591604166309     -120.409095253817        6.251940455737
Te      -62.728004408730     -104.782829508552        5.923920432267
Te      -59.591604160052     -108.919447565307        6.251940455737
Te      -62.728004402474      -93.293181820042        5.923920432267
Te      -59.591604153796      -97.429799876797        6.251940455737
Te      -62.728004396218      -81.803534131531        5.923920432267
Te      -59.591604141267      -85.940151763169        6.251940455737
Te      -62.728004389962      -70.313886443021        5.923920432267
Te      -59.591604135011      -74.450504074659        6.251940455737
Te      -62.728004383705      -58.824238754511        5.923920432267
Te      -59.591604128755      -62.960856386149        6.251940455737
Te      -62.728004377449      -47.334591066000        5.923920432267
Te      -59.591604122499      -51.471208697638        6.251940455737
Te      -62.728004371193      -35.844943377490        5.923920432267
Te      -59.591604116243      -39.981561009128        6.251940455737
Te      -62.728004364937      -24.355295688980        5.923920432267
Te      -59.591604109987      -28.491913320618        6.251940455737
Te      -62.728004358681      -12.865648000469        5.923920432267
Te      -59.591604103730      -17.002265632107        6.251940455737
Te      -62.728004352425       -1.376000311959        5.923920432267
Te      -59.591604097474       -5.512617943597        6.251940455737
Te      -62.728004346168       10.113647376552        5.923920432267
Te      -59.591604091218        5.977029744913        6.251940455737
Te      -62.728004339912       21.603295065062        5.923920432267
Te      -59.591604084962       17.466677433424        6.251940455737
Te      -62.728004333656       33.092942753572        5.923920432267
Te      -59.591604078706       28.956325121934        6.251940455737
Te      -62.728004327400       44.582590442083        5.923920432267
Te      -59.591604072449       40.445972810445        6.251940455737
Te      -62.728004321144       56.072238130593        5.923920432267
Te      -59.591604066193       51.935620498955        6.251940455737
Te      -62.728004314888       67.561885819103        5.923920432267
Te      -59.591604059937       63.425268187465        6.251940455737
Te      -62.728004308631       79.051533507614        5.923920432267
Te      -59.591604053681       74.914915875976        6.251940455737
Te      -62.728004302375       90.541181196124        5.923920432267
Te      -59.591604047425       86.404563564486        6.251940455737
Te      -62.728004296119      102.030828884634        5.923920432267
Te      -59.591604204261       97.894211252996        6.251940455737
Te      -62.728004283590      113.520476998262        5.923920432267
Te      -59.591604198005      109.383858941507        6.251940455737
Te      -62.728004277334      125.010124686772        5.923920432267
Te      -59.591604191749      120.873506630017        6.251940455737
Te      -62.728004271078      136.499772375282        5.923920432267
Te      -59.591604185493      132.363154318527        6.251940455737
Te      -62.728004264822      147.989420063793        5.923920432267
Te      -59.591604179237      143.852802007038        6.251940455737
Te      -62.728004421658      159.479067752303        5.923920432267
Te      -59.591604172981      155.342449695548        6.251940455737
Te      -62.728004415402      170.968715440813        5.923920432267
Te      -59.591604166724      166.832097384058        6.251940455737
Te      -62.728004409146      182.458363129324        5.923920432267
Te      -59.591604160468      178.321745072569        6.251940455737
Te      -62.728004402890      193.948010817834        5.923920432267
Te      -59.591604154212      189.811392761079        6.251940455737
Te      -62.728004396634      205.437658506344        5.923920432267
Te      -59.591604147956      201.301040449589        6.251940455737
Te      -69.000804824377     -208.189658705145        5.923920432267
Te      -65.864404575700     -212.326276761900        6.251940455737
Te      -69.000804818121     -196.700011016635        5.923920432267
Te      -65.864404569444     -200.836629073390        6.251940455737
Te      -69.000804811865     -185.210363328124        5.923920432267
Te      -65.864404563187     -189.346981384879        6.251940455737
Te      -69.000804805609     -173.720715639614        5.923920432267
Te      -65.864404556931     -177.857333696369        6.251940455737
Te      -69.000804799353     -162.231067951104        5.923920432267
Te      -65.864404550675     -166.367686007859        6.251940455737
Te      -69.000804793097     -150.741420262593        5.923920432267
Te      -65.864404544419     -154.878038319348        6.251940455737
Te      -69.000804786840     -139.251772574083        5.923920432267
Te      -65.864404538163     -143.388390630838        6.251940455737
Te      -69.000804780584     -127.762124885573        5.923920432267
Te      -65.864404531907     -131.898742942328        6.251940455737
Te      -69.000804774328     -116.272477197062        5.923920432267
Te      -65.864404525650     -120.409095253817        6.251940455737
Te      -69.000804768072     -104.782829508552        5.923920432267
Te      -65.864404519394     -108.919447565307        6.251940455737
Te      -69.000804761816      -93.293181820042        5.923920432267
Te      -65.864404513138      -97.429799876797        6.251940455737
Te      -69.000804755560      -81.803534131531        5.923920432267
Te      -65.864404500609      -85.940151763169        6.251940455737
Te      -69.000804749303      -70.313886443021        5.923920432267
Te      -65.864404494353      -74.450504074659        6.251940455737
Te      -69.000804743047      -58.824238754511        5.923920432267
Te      -65.864404488097      -62.960856386149        6.251940455737
Te      -69.000804736791      -47.334591066000        5.923920432267
Te      -65.864404481841      -51.471208697638        6.251940455737
Te      -69.000804730535      -35.844943377490        5.923920432267
Te      -65.864404638677      -39.981561009128        6.251940455737
Te      -69.000804724279      -24.355295688980        5.923920432267
Te      -65.864404632421      -28.491913320618        6.251940455737
Te      -69.000804718023      -12.865648000469        5.923920432267
Te      -65.864404626165      -17.002265632107        6.251940455737
Te      -69.000804711766       -1.376000311959        5.923920432267
Te      -65.864404619909       -5.512617943597        6.251940455737
Te      -69.000804705510       10.113647376552        5.923920432267
Te      -65.864404613653        5.977029744913        6.251940455737
Te      -69.000804862347       21.603295065062        5.923920432267
Te      -65.864404607396       17.466677433424        6.251940455737
Te      -69.000804856091       33.092942753572        5.923920432267
Te      -65.864404601140       28.956325121934        6.251940455737
Te      -69.000804849835       44.582590442083        5.923920432267
Te      -65.864404594884       40.445972810445        6.251940455737
Te      -69.000804843578       56.072238130593        5.923920432267
Te      -65.864404588628       51.935620498955        6.251940455737
Te      -69.000804837322       67.561885819103        5.923920432267
Te      -65.864404582372       63.425268187465        6.251940455737
Te      -69.000804831066       79.051533507614        5.923920432267
Te      -65.864404576116       74.914915875976        6.251940455737
Te      -69.000804824810       90.541181196124        5.923920432267
Te      -65.864404569859       86.404563564486        6.251940455737
Te      -69.000804818554      102.030828884634        5.923920432267
Te      -65.864404563603       97.894211252996        6.251940455737
Te      -69.000804806025      113.520476998262        5.923920432267
Te      -65.864404557347      109.383858941507        6.251940455737
Te      -69.000804799769      125.010124686772        5.923920432267
Te      -65.864404551091      120.873506630017        6.251940455737
Te      -69.000804793512      136.499772375282        5.923920432267
Te      -65.864404544835      132.363154318527        6.251940455737
Te      -69.000804787256      147.989420063793        5.923920432267
Te      -65.864404538579      143.852802007038        6.251940455737
Te      -69.000804781000      159.479067752303        5.923920432267
Te      -65.864404532322      155.342449695548        6.251940455737
Te      -69.000804774744      170.968715440813        5.923920432267
Te      -65.864404526066      166.832097384058        6.251940455737
Te      -69.000804768488      182.458363129324        5.923920432267
Te      -65.864404519810      178.321745072569        6.251940455737
Te      -69.000804762232      193.948010817834        5.923920432267
Te      -65.864404513554      189.811392761079        6.251940455737
Te      -69.000804755975      205.437658506344        5.923920432267
Te      -65.864404507298      201.301040449589        6.251940455737
Te      -75.273605183719     -208.189658705145        5.923920432267
Te      -72.137204935042     -212.326276761900        6.251940455737
Te      -75.273605177463     -196.700011016635        5.923920432267
Te      -72.137204928785     -200.836629073390        6.251940455737
Te      -75.273605171207     -185.210363328124        5.923920432267
Te      -72.137204922529     -189.346981384879        6.251940455737
Te      -75.273605164951     -173.720715639614        5.923920432267
Te      -72.137205079366     -177.857333696369        6.251940455737
Te      -75.273605158695     -162.231067951104        5.923920432267
Te      -72.137205073110     -166.367686007859        6.251940455737
Te      -75.273605152438     -150.741420262593        5.923920432267
Te      -72.137205066854     -154.878038319348        6.251940455737
Te      -75.273605146182     -139.251772574083        5.923920432267
Te      -72.137205060597     -143.388390630838        6.251940455737
Te      -75.273605139926     -127.762124885573        5.923920432267
Te      -72.137205054341     -131.898742942328        6.251940455737
Te      -75.273605133670     -116.272477197062        5.923920432267
Te      -72.137205048085     -120.409095253817        6.251940455737
Te      -75.273605290507     -104.782829508552        5.923920432267
Te      -72.137205041829     -108.919447565307        6.251940455737
Te      -75.273605284250      -93.293181820042        5.923920432267
Te      -72.137205035573      -97.429799876797        6.251940455737
Te      -75.273605277994      -81.803534131531        5.923920432267
Te      -72.137205023044      -85.940151763169        6.251940455737
Te      -75.273605271738      -70.313886443021        5.923920432267
Te      -72.137205016788      -74.450504074659        6.251940455737
Te      -75.273605265482      -58.824238754511        5.923920432267
Te      -72.137205010531      -62.960856386149        6.251940455737
Te      -75.273605259226      -47.334591066000        5.923920432267
Te      -72.137205004275      -51.471208697638        6.251940455737
Te      -75.273605252970      -35.844943377490        5.923920432267
Te      -72.137204998019      -39.981561009128        6.251940455737
Te      -75.273605246713      -24.355295688980        5.923920432267
Te      -72.137204991763      -28.491913320618        6.251940455737
Te      -75.273605240457      -12.865648000469        5.923920432267
Te      -72.137204985507      -17.002265632107        6.251940455737
Te      -75.273605234201       -1.376000311959        5.923920432267
Te      -72.137204979251       -5.512617943597        6.251940455737
Te      -75.273605227945       10.113647376552        5.923920432267
Te      -72.137204972994        5.977029744913        6.251940455737
Te      -75.273605221689       21.603295065062        5.923920432267
Te      -72.137204966738       17.466677433424        6.251940455737
Te      -75.273605215433       33.092942753572        5.923920432267
Te      -72.137204960482       28.956325121934        6.251940455737
Te      -75.273605209176       44.582590442083        5.923920432267
Te      -72.137204954226       40.445972810445        6.251940455737
Te      -75.273605202920       56.072238130593        5.923920432267
Te      -72.137204947970       51.935620498955        6.251940455737
Te      -75.273605196664       67.561885819103        5.923920432267
Te      -72.137204941714       63.425268187465        6.251940455737
Te      -75.273605190408       79.051533507614        5.923920432267
Te      -72.137204935457       74.914915875976        6.251940455737
Te      -75.273605184152       90.541181196124        5.923920432267
Te      -72.137204929201       86.404563564486        6.251940455737
Te      -75.273605177896      102.030828884634        5.923920432267
Te      -72.137204922945       97.894211252996        6.251940455737
Te      -75.273605165367      113.520476998262        5.923920432267
Te      -72.137204916689      109.383858941507        6.251940455737
Te      -75.273605159110      125.010124686772        5.923920432267
Te      -72.137205073526      120.873506630017        6.251940455737
Te      -75.273605152854      136.499772375282        5.923920432267
Te      -72.137205067269      132.363154318527        6.251940455737
Te      -75.273605146598      147.989420063793        5.923920432267
Te      -72.137205061013      143.852802007038        6.251940455737
Te      -75.273605140342      159.479067752303        5.923920432267
Te      -72.137205054757      155.342449695548        6.251940455737
Te      -75.273605134086      170.968715440813        5.923920432267
Te      -72.137205048501      166.832097384058        6.251940455737
Te      -75.273605290922      182.458363129324        5.923920432267
Te      -72.137205042245      178.321745072569        6.251940455737
Te      -75.273605284666      193.948010817834        5.923920432267
Te      -72.137205035988      189.811392761079        6.251940455737
Te      -75.273605278410      205.437658506344        5.923920432267
Te      -72.137205029732      201.301040449589        6.251940455737
Te      -81.546405706154     -208.189658705145        5.923920432267
Te      -78.410005457476     -212.326276761900        6.251940455737
Te      -81.546405699898     -196.700011016635        5.923920432267
Te      -78.410005451220     -200.836629073390        6.251940455737
Te      -81.546405693642     -185.210363328124        5.923920432267
Te      -78.410005444964     -189.346981384879        6.251940455737
Te      -81.546405687385     -173.720715639614        5.923920432267
Te      -78.410005438708     -177.857333696369        6.251940455737
Te      -81.546405681129     -162.231067951104        5.923920432267
Te      -78.410005432451     -166.367686007859        6.251940455737
Te      -81.546405674873     -150.741420262593        5.923920432267
Te      -78.410005426195     -154.878038319348        6.251940455737
Te      -81.546405668617     -139.251772574083        5.923920432267
Te      -78.410005419939     -143.388390630838        6.251940455737
Te      -81.546405662361     -127.762124885573        5.923920432267
Te      -78.410005413683     -131.898742942328        6.251940455737
Te      -81.546405656104     -116.272477197062        5.923920432267
Te      -78.410005407427     -120.409095253817        6.251940455737
Te      -81.546405649848     -104.782829508552        5.923920432267
Te      -78.410005401171     -108.919447565307        6.251940455737
Te      -81.546405643592      -93.293181820042        5.923920432267
Te      -78.410005394914      -97.429799876797        6.251940455737
Te      -81.546405637336      -81.803534131531        5.923920432267
Te      -78.410005382385      -85.940151763169        6.251940455737
Te      -81.546405631080      -70.313886443021        5.923920432267
Te      -78.410005376129      -74.450504074659        6.251940455737
Te      -81.546405624824      -58.824238754511        5.923920432267
Te      -78.410005369873      -62.960856386149        6.251940455737
Te      -81.546405618567      -47.334591066000        5.923920432267
Te      -78.410005363617      -51.471208697638        6.251940455737
Te      -81.546405612311      -35.844943377490        5.923920432267
Te      -78.410005357361      -39.981561009128        6.251940455737
Te      -81.546405606055      -24.355295688980        5.923920432267
Te      -78.410005351105      -28.491913320618        6.251940455737
Te      -81.546405599799      -12.865648000469        5.923920432267
Te      -78.410005507941      -17.002265632107        6.251940455737
Te      -81.546405593543       -1.376000311959        5.923920432267
Te      -78.410005501685       -5.512617943597        6.251940455737
Te       81.546405712713       10.113647376552        5.923920432267
Te      -78.410005495429        5.977029744913        6.251940455737
Te       81.546405718970       21.603295065062        5.923920432267
Te      -78.410005489173       17.466677433424        6.251940455737
Te       81.546405725226       33.092942753572        5.923920432267
Te      -78.410005482917       28.956325121934        6.251940455737
Te       81.546405568389       44.582590442083        5.923920432267
Te      -78.410005476660       40.445972810445        6.251940455737
Te       81.546405574645       56.072238130593        5.923920432267
Te      -78.410005470404       51.935620498955        6.251940455737
Te       81.546405580901       67.561885819103        5.923920432267
Te      -78.410005464148       63.425268187465        6.251940455737
Te       81.546405587158       79.051533507614        5.923920432267
Te      -78.410005457892       74.914915875976        6.251940455737
Te       81.546405593414       90.541181196124        5.923920432267
Te      -78.410005451636       86.404563564486        6.251940455737
Te       81.546405599670      102.030828884634        5.923920432267
Te      -78.410005445380       97.894211252996        6.251940455737
Te       81.546405612199      113.520476998262        5.923920432267
Te      -78.410005439123      109.383858941507        6.251940455737
Te       81.546405618455      125.010124686772        5.923920432267
Te      -78.410005432867      120.873506630017        6.251940455737
Te       81.546405624711      136.499772375282        5.923920432267
Te      -78.410005426611      132.363154318527        6.251940455737
Te       81.546405630967      147.989420063793        5.923920432267
Te      -78.410005420355      143.852802007038        6.251940455737
Te       81.546405637224      159.479067752303        5.923920432267
Te      -78.410005414099      155.342449695548        6.251940455737
Te       81.546405643480      170.968715440813        5.923920432267
Te      -78.410005407843      166.832097384058        6.251940455737
Te       81.546405649736      182.458363129324        5.923920432267
Te      -78.410005401586      178.321745072569        6.251940455737
Te       81.546405655992      193.948010817834        5.923920432267
Te      -78.410005395330      189.811392761079        6.251940455737
Te       81.546405662248      205.437658506344        5.923920432267
Te      -78.410005389074      201.301040449589        6.251940455737
Te       75.273605234504     -208.189658705145        5.923920432267
Te       78.410005483182     -212.326276761900        6.251940455737
W       -81.546405624613     -204.241827440397      -10.050360728316
W        78.410005401632     -209.919769970708       -8.892540656659
W       -81.546405630880     -208.288412525858       -3.354420256655
W        78.410005458077     -202.549907832727       -2.102040154077
W       -75.273605265271     -204.241827440397      -10.050360728316
W       -78.410005375933     -209.919769970708       -8.892540656659
W       -75.273605271538     -208.288412525858       -3.354420256655
W       -78.410005482582     -202.549907832727       -2.102040154077
W       -75.273605259015     -192.752179751887      -10.050360728316
W       -78.410005369677     -198.430122282197       -8.892540656659
W       -75.273605265282     -196.798764837347       -3.354420256655
W       -78.410005476325     -191.060260144217       -2.102040154077
W       -75.273605252759     -181.262532063376      -10.050360728316
W       -78.410005363421     -186.940474593687       -8.892540656659
W       -75.273605252753     -185.309116723720       -3.354420256655
W       -78.410005470069     -179.570612455706       -2.102040154077
W       -75.273605246503     -169.772884374866      -10.050360728316
W       -78.410005357165     -175.450826905177       -8.892540656659
W       -75.273605246497     -173.819469035209       -3.354420256655
W       -78.410005463813     -168.080964767196       -2.102040154077
W       -75.273605240247     -158.283236686355      -10.050360728316
W       -78.410005514001     -163.961179216666       -8.892540656659
W       -75.273605240241     -162.329821346699       -3.354420256655
W       -78.410005457557     -156.591317078686       -2.102040154077
W       -75.273605233991     -146.793588997845      -10.050360728316
W       -78.410005507745     -152.471531528156       -8.892540656659
W       -75.273605233985     -150.840173658189       -3.354420256655
W       -78.410005451301     -145.101669390175       -2.102040154077
W       -75.273605227734     -135.303941309335      -10.050360728316
W       -78.410005501489     -140.981883839646       -8.892540656659
W       -75.273605227728     -139.350525969678       -3.354420256655
W       -78.410005445044     -133.612021701665       -2.102040154077
W       -75.273605221478     -123.814293620824      -10.050360728316
W       -78.410005495233     -129.492236151135       -8.892540656659
W       -75.273605221472     -127.860878281168       -3.354420256655
W       -78.410005438788     -122.122374013155       -2.102040154077
W       -75.273605215222     -112.324645932314      -10.050360728316
W       -78.410005488977     -118.002588462625       -8.892540656659
W       -75.273605215216     -116.371230592658       -3.354420256655
W       -78.410005432532     -110.632726324644       -2.102040154077
W       -75.273605208966     -100.834998243804      -10.050360728316
W       -78.410005482721     -106.512940774114       -8.892540656659
W       -75.273605208960     -104.881582904147       -3.354420256655
W       -78.410005426276      -99.143078636134       -2.102040154077
W       -75.273605202710      -89.345350555293      -10.050360728316
W       -78.410005476464      -95.023293085604       -8.892540656659
W       -75.273605202704      -93.391935215637       -3.354420256655
W       -78.410005420020      -87.653430947624       -2.102040154077
W       -75.273605190181      -77.855702441666      -10.050360728316
W       -78.410005470208      -83.533645397094       -8.892540656659
W       -75.273605196448      -81.902287527127       -3.354420256655
W       -78.410005413764      -76.163783259113       -2.102040154077
W       -75.273605183925      -66.366054753156      -10.050360728316
W       -78.410005463952      -72.043997708583       -8.892540656659
W       -75.273605190191      -70.412639838616       -3.354420256655
W       -78.410005407507      -64.674135570603       -2.102040154077
W       -75.273605177668      -54.876407064645      -10.050360728316
W       -78.410005457696      -60.554350020073       -8.892540656659
W       -75.273605183935      -58.922992150106       -3.354420256655
W       -78.410005401251      -53.184487882092       -2.102040154077
W       -75.273605171412      -43.386759376135      -10.050360728316
W       -78.410005451440      -49.064702331563       -8.892540656659
W       -75.273605177679      -47.433344461596       -3.354420256655
W       -78.410005394995      -41.694840193582       -2.102040154077
W       -75.273605165156      -31.897111687625      -10.050360728316
W       -78.410005445184      -37.575054643052       -8.892540656659
W       -75.273605171423      -35.943696773085       -3.354420256655
W       -78.410005382466      -30.205192079955       -2.102040154077
W       -75.273605158900      -20.407463999114      -10.050360728316
W       -78.410005438927      -26.085406954542       -8.892540656659
W       -75.273605165167      -24.454049084575       -3.354420256655
W       -78.410005376210      -18.715544391444       -2.102040154077
W       -75.273605152644       -8.917816310604      -10.050360728316
W       -78.410005432671      -14.595759266032       -8.892540656659
W       -75.273605158911      -12.964401396065       -3.354420256655
W       -78.410005369954       -7.225896702934       -2.102040154077
W       -75.273605146388        2.571831377906      -10.050360728316
W       -78.410005420142       -3.106111152404       -8.892540656659
W       -75.273605152654       -1.474753707554       -3.354420256655
W       -78.410005363698        4.263750985576       -2.102040154077
W       -75.273605140131       14.061479066417      -10.050360728316
W       -78.410005413886        8.383536536106       -8.892540656659
W       -75.273605146398       10.014893980956       -3.354420256655
W       -78.410005357442       15.753398674087       -2.102040154077
W       -75.273605133875       25.551126754927      -10.050360728316
W       -78.410005407630       19.873184224616       -8.892540656659
W       -75.273605140142       21.504541669467       -3.354420256655
W       -78.410005351185       27.243046362597       -2.102040154077
W       -75.273605290712       37.040774443437      -10.050360728316
W       -78.410005401374       31.362831913127       -8.892540656659
W       -75.273605296979       32.994189357977       -3.354420256655
W       -78.410005508022       38.732694051107       -2.102040154077
W       -75.273605284456       48.530422131948      -10.050360728316
W       -78.410005395118       42.852479601637       -8.892540656659
W       -75.273605290723       44.483837046487       -3.354420256655
W       -78.410005501766       50.222341739618       -2.102040154077
W       -75.273605278199       60.020069820458      -10.050360728316
W       -78.410005388861       54.342127290147       -8.892540656659
W       -75.273605284466       55.973484734998       -3.354420256655
W       -78.410005495510       61.711989428128       -2.102040154077
W       -75.273605271943       71.509717508969      -10.050360728316
W       -78.410005382605       65.831774978658       -8.892540656659
W       -75.273605278210       67.463132423508       -3.354420256655
W       -78.410005489253       73.201637116638       -2.102040154077
W       -75.273605265687       82.999365197479      -10.050360728316
W       -78.410005376349       77.321422667168       -8.892540656659
W       -75.273605271954       78.952780112018       -3.354420256655
W       -78.410005482997       84.691284805149       -2.102040154077
W       -75.273605259431       94.489012885989      -10.050360728316
W       -78.410005370093       88.811070355678       -8.892540656659
W       -75.273605265698       90.442427800529       -3.354420256655
W       -78.410005476741       96.180932493659       -2.102040154077
W       -75.273605253175      105.978660574500      -10.050360728316
W       -78.410005363837      100.300718044189       -8.892540656659
W       -75.273605259442      101.932075489039       -3.354420256655
W       -78.410005470485      107.670580182169       -2.102040154077
W       -75.273605246919      117.468308263010      -10.050360728316
W       -78.410005357581      111.790365732699       -8.892540656659
W       -75.273605253186      113.421723177549       -3.354420256655
W       -78.410005464229      119.160227870680       -2.102040154077
W       -75.273605240662      128.957955951520      -10.050360728316
W       -78.410005351324      123.280013421210       -8.892540656659
W       -75.273605246929      124.911370866060       -3.354420256655
W       -78.410005457973      130.649875559190       -2.102040154077
W       -75.273605234406      140.447603640031      -10.050360728316
W       -78.410005508161      134.769661109720       -8.892540656659
W       -75.273605240673      136.401018554570       -3.354420256655
W       -78.410005451716      142.139523247700       -2.102040154077
W       -75.273605228150      151.937251328541      -10.050360728316
W       -78.410005501905      146.259308798230       -8.892540656659
W       -75.273605234417      147.890666243080       -3.354420256655
W       -78.410005445460      153.629170936211       -2.102040154077
W       -75.273605221894      163.426899017051      -10.050360728316
W       -78.410005495649      157.748956486741       -8.892540656659
W       -75.273605228161      159.380313931591       -3.354420256655
W       -78.410005439204      165.118818624721       -2.102040154077
W       -75.273605215638      174.916546705562      -10.050360728316
W       -78.410005489392      169.238604175251       -8.892540656659
W       -75.273605221905      170.869961620101       -3.354420256655
W       -78.410005432948      176.608466313232       -2.102040154077
W       -75.273605209382      186.406194394072      -10.050360728316
W       -78.410005483136      180.728251863761       -8.892540656659
W       -75.273605215649      182.359609308611       -3.354420256655
W       -78.410005426692      188.098114001742       -2.102040154077
W       -75.273605203125      197.895842082582      -10.050360728316
W       -78.410005476880      192.217899552272       -8.892540656659
W       -75.273605209392      193.849256997122       -3.354420256655
W       -78.410005420436      199.587761690252       -2.102040154077
W       -75.273605196869      209.385489771093      -10.050360728316
W       -78.410005470624      203.707547240782       -8.892540656659
W       -75.273605203136      205.338904685632       -3.354420256655
W       -78.410005414179      211.077409378763       -2.102040154077
W       -69.000804742837     -204.241827440397      -10.050360728316
W       -72.137205016591     -209.919769970708       -8.892540656659
W       -69.000804749104     -208.288412525858       -3.354420256655
W       -72.137204960147     -202.549907832727       -2.102040154077
W       -69.000804736581     -192.752179751887      -10.050360728316
W       -72.137205010335     -198.430122282197       -8.892540656659
W       -69.000804742848     -196.798764837347       -3.354420256655
W       -72.137204953891     -191.060260144217       -2.102040154077
W       -69.000804730324     -181.262532063376      -10.050360728316
W       -72.137205004079     -186.940474593687       -8.892540656659
W       -69.000804730319     -185.309116723720       -3.354420256655
W       -72.137204947635     -179.570612455706       -2.102040154077
W       -69.000804724068     -169.772884374866      -10.050360728316
W       -72.137204997823     -175.450826905177       -8.892540656659
W       -69.000804724062     -173.819469035209       -3.354420256655
W       -72.137204941378     -168.080964767196       -2.102040154077
W       -69.000804717812     -158.283236686355      -10.050360728316
W       -72.137204991567     -163.961179216666       -8.892540656659
W       -69.000804717806     -162.329821346699       -3.354420256655
W       -72.137204935122     -156.591317078686       -2.102040154077
W       -69.000804711556     -146.793588997845      -10.050360728316
W       -72.137204985311     -152.471531528156       -8.892540656659
W       -69.000804711550     -150.840173658189       -3.354420256655
W       -72.137204928866     -145.101669390175       -2.102040154077
W       -69.000804705300     -135.303941309335      -10.050360728316
W       -72.137204979054     -140.981883839646       -8.892540656659
W       -69.000804705294     -139.350525969678       -3.354420256655
W       -72.137204922610     -133.612021701665       -2.102040154077
W       -69.000804862136     -123.814293620824      -10.050360728316
W       -72.137204972798     -129.492236151135       -8.892540656659
W       -69.000804699038     -127.860878281168       -3.354420256655
W       -72.137205079447     -122.122374013155       -2.102040154077
W       -69.000804855880     -112.324645932314      -10.050360728316
W       -72.137204966542     -118.002588462625       -8.892540656659
W       -69.000804855874     -116.371230592658       -3.354420256655
W       -72.137205073190     -110.632726324644       -2.102040154077
W       -69.000804849624     -100.834998243804      -10.050360728316
W       -72.137204960286     -106.512940774114       -8.892540656659
W       -69.000804849618     -104.881582904147       -3.354420256655
W       -72.137205066934      -99.143078636134       -2.102040154077
W       -69.000804843368      -89.345350555293      -10.050360728316
W       -72.137204954030      -95.023293085604       -8.892540656659
W       -69.000804843362      -93.391935215637       -3.354420256655
W       -72.137205060678      -87.653430947624       -2.102040154077
W       -69.000804830839      -77.855702441666      -10.050360728316
W       -72.137204947774      -83.533645397094       -8.892540656659
W       -69.000804837106      -81.902287527127       -3.354420256655
W       -72.137205054422      -76.163783259113       -2.102040154077
W       -69.000804824583      -66.366054753156      -10.050360728316
W       -72.137204941517      -72.043997708583       -8.892540656659
W       -69.000804830850      -70.412639838616       -3.354420256655
W       -72.137205048166      -64.674135570603       -2.102040154077
W       -69.000804818327      -54.876407064645      -10.050360728316
W       -72.137204935261      -60.554350020073       -8.892540656659
W       -69.000804824594      -58.922992150106       -3.354420256655
W       -72.137205041910      -53.184487882092       -2.102040154077
W       -69.000804812070      -43.386759376135      -10.050360728316
W       -72.137204929005      -49.064702331563       -8.892540656659
W       -69.000804818337      -47.433344461596       -3.354420256655
W       -72.137205035653      -41.694840193582       -2.102040154077
W       -69.000804805814      -31.897111687625      -10.050360728316
W       -72.137204922749      -37.575054643052       -8.892540656659
W       -69.000804812081      -35.943696773085       -3.354420256655
W       -72.137205023124      -30.205192079955       -2.102040154077
W       -69.000804799558      -20.407463999114      -10.050360728316
W       -72.137205079586      -26.085406954542       -8.892540656659
W       -69.000804805825      -24.454049084575       -3.354420256655
W       -72.137205016868      -18.715544391444       -2.102040154077
W       -69.000804793302       -8.917816310604      -10.050360728316
W       -72.137205073329      -14.595759266032       -8.892540656659
W       -69.000804799569      -12.964401396065       -3.354420256655
W       -72.137205010612       -7.225896702934       -2.102040154077
W       -69.000804787046        2.571831377906      -10.050360728316
W       -72.137205060800       -3.106111152404       -8.892540656659
W       -69.000804793313       -1.474753707554       -3.354420256655
W       -72.137205004356        4.263750985576       -2.102040154077
W       -69.000804780790       14.061479066417      -10.050360728316
W       -72.137205054544        8.383536536106       -8.892540656659
W       -69.000804787057       10.014893980956       -3.354420256655
W       -72.137204998100       15.753398674087       -2.102040154077
W       -69.000804774533       25.551126754927      -10.050360728316
W       -72.137205048288       19.873184224616       -8.892540656659
W       -69.000804780800       21.504541669467       -3.354420256655
W       -72.137204991844       27.243046362597       -2.102040154077
W       -69.000804768277       37.040774443437      -10.050360728316
W       -72.137205042032       31.362831913127       -8.892540656659
W       -69.000804774544       32.994189357977       -3.354420256655
W       -72.137204985587       38.732694051107       -2.102040154077
W       -69.000804762021       48.530422131948      -10.050360728316
W       -72.137205035776       42.852479601637       -8.892540656659
W       -69.000804768288       44.483837046487       -3.354420256655
W       -72.137204979331       50.222341739618       -2.102040154077
W       -69.000804755765       60.020069820458      -10.050360728316
W       -72.137205029520       54.342127290147       -8.892540656659
W       -69.000804762032       55.973484734998       -3.354420256655
W       -72.137204973075       61.711989428128       -2.102040154077
W       -69.000804749509       71.509717508969      -10.050360728316
W       -72.137205023263       65.831774978658       -8.892540656659
W       -69.000804755776       67.463132423508       -3.354420256655
W       -72.137204966819       73.201637116638       -2.102040154077
W       -69.000804743253       82.999365197479      -10.050360728316
W       -72.137205017007       77.321422667168       -8.892540656659
W       -69.000804749520       78.952780112018       -3.354420256655
W       -72.137204960563       84.691284805149       -2.102040154077
W       -69.000804736996       94.489012885989      -10.050360728316
W       -72.137205010751       88.811070355678       -8.892540656659
W       -69.000804743263       90.442427800529       -3.354420256655
W       -72.137204954307       96.180932493659       -2.102040154077
W       -69.000804730740      105.978660574500      -10.050360728316
W       -72.137205004495      100.300718044189       -8.892540656659
W       -69.000804737007      101.932075489039       -3.354420256655
W       -72.137204948050      107.670580182169       -2.102040154077
W       -69.000804724484      117.468308263010      -10.050360728316
W       -72.137204998239      111.790365732699       -8.892540656659
W       -69.000804730751      113.421723177549       -3.354420256655
W       -72.137204941794      119.160227870680       -2.102040154077
W       -69.000804718228      128.957955951520      -10.050360728316
W       -72.137204991983      123.280013421210       -8.892540656659
W       -69.000804724495      124.911370866060       -3.354420256655
W       -72.137204935538      130.649875559190       -2.102040154077
W       -69.000804711972      140.447603640031      -10.050360728316
W       -72.137204985726      134.769661109720       -8.892540656659
W       -69.000804718239      136.401018554570       -3.354420256655
W       -72.137204929282      142.139523247700       -2.102040154077
W       -69.000804705716      151.937251328541      -10.050360728316
W       -72.137204979470      146.259308798230       -8.892540656659
W       -69.000804711983      147.890666243080       -3.354420256655
W       -72.137204923026      153.629170936211       -2.102040154077
W       -69.000804862552      163.426899017051      -10.050360728316
W       -72.137204973214      157.748956486741       -8.892540656659
W       -69.000804705726      159.380313931591       -3.354420256655
W       -72.137204916770      165.118818624721       -2.102040154077
W       -69.000804856296      174.916546705562      -10.050360728316
W       -72.137204966958      169.238604175251       -8.892540656659
W       -69.000804862563      170.869961620101       -3.354420256655
W       -72.137205073606      176.608466313232       -2.102040154077
W       -69.000804850040      186.406194394072      -10.050360728316
W       -72.137204960702      180.728251863761       -8.892540656659
W       -69.000804856307      182.359609308611       -3.354420256655
W       -72.137205067350      188.098114001742       -2.102040154077
W       -69.000804843784      197.895842082582      -10.050360728316
W       -72.137204954446      192.217899552272       -8.892540656659
W       -69.000804850051      193.849256997122       -3.354420256655
W       -72.137205061094      199.587761690252       -2.102040154077
W       -69.000804837528      209.385489771093      -10.050360728316
W       -72.137204948189      203.707547240782       -8.892540656659
W       -69.000804843794      205.338904685632       -3.354420256655
W       -72.137205054838      211.077409378763       -2.102040154077
W       -62.728004383495     -204.241827440397      -10.050360728316
W       -65.864404494157     -209.919769970708       -8.892540656659
W       -62.728004389762     -208.288412525858       -3.354420256655
W       -65.864404600805     -202.549907832727       -2.102040154077
W       -62.728004377239     -192.752179751887      -10.050360728316
W       -65.864404487901     -198.430122282197       -8.892540656659
W       -62.728004383506     -196.798764837347       -3.354420256655
W       -65.864404594549     -191.060260144217       -2.102040154077
W       -62.728004370983     -181.262532063376      -10.050360728316
W       -65.864404644737     -186.940474593687       -8.892540656659
W       -62.728004370977     -185.309116723720       -3.354420256655
W       -65.864404588293     -179.570612455706       -2.102040154077
W       -62.728004364726     -169.772884374866      -10.050360728316
W       -65.864404638481     -175.450826905177       -8.892540656659
W       -62.728004364721     -173.819469035209       -3.354420256655
W       -65.864404582037     -168.080964767196       -2.102040154077
W       -62.728004358470     -158.283236686355      -10.050360728316
W       -65.864404632225     -163.961179216666       -8.892540656659
W       -62.728004358464     -162.329821346699       -3.354420256655
W       -65.864404575780     -156.591317078686       -2.102040154077
W       -62.728004352214     -146.793588997845      -10.050360728316
W       -65.864404625969     -152.471531528156       -8.892540656659
W       -62.728004352208     -150.840173658189       -3.354420256655
W       -65.864404569524     -145.101669390175       -2.102040154077
W       -62.728004345958     -135.303941309335      -10.050360728316
W       -65.864404619713     -140.981883839646       -8.892540656659
W       -62.728004345952     -139.350525969678       -3.354420256655
W       -65.864404563268     -133.612021701665       -2.102040154077
W       -62.728004339702     -123.814293620824      -10.050360728316
W       -65.864404613456     -129.492236151135       -8.892540656659
W       -62.728004339696     -127.860878281168       -3.354420256655
W       -65.864404557012     -122.122374013155       -2.102040154077
W       -62.728004333446     -112.324645932314      -10.050360728316
W       -65.864404607200     -118.002588462625       -8.892540656659
W       -62.728004333440     -116.371230592658       -3.354420256655
W       -65.864404550756     -110.632726324644       -2.102040154077
W       -62.728004327189     -100.834998243804      -10.050360728316
W       -65.864404600944     -106.512940774114       -8.892540656659
W       -62.728004327184     -104.881582904147       -3.354420256655
W       -65.864404544500      -99.143078636134       -2.102040154077
W       -62.728004320933      -89.345350555293      -10.050360728316
W       -65.864404594688      -95.023293085604       -8.892540656659
W       -62.728004320927      -93.391935215637       -3.354420256655
W       -65.864404538243      -87.653430947624       -2.102040154077
W       -62.728004308404      -77.855702441666      -10.050360728316
W       -65.864404588432      -83.533645397094       -8.892540656659
W       -62.728004314671      -81.902287527127       -3.354420256655
W       -65.864404531987      -76.163783259113       -2.102040154077
W       -62.728004302148      -66.366054753156      -10.050360728316
W       -65.864404582176      -72.043997708583       -8.892540656659
W       -62.728004308415      -70.412639838616       -3.354420256655
W       -65.864404525731      -64.674135570603       -2.102040154077
W       -62.728004295892      -54.876407064645      -10.050360728316
W       -65.864404575919      -60.554350020073       -8.892540656659
W       -62.728004302159      -58.922992150106       -3.354420256655
W       -65.864404519475      -53.184487882092       -2.102040154077
W       -62.728004289636      -43.386759376135      -10.050360728316
W       -65.864404569663      -49.064702331563       -8.892540656659
W       -62.728004295903      -47.433344461596       -3.354420256655
W       -65.864404513219      -41.694840193582       -2.102040154077
W       -62.728004283380      -31.897111687625      -10.050360728316
W       -65.864404563407      -37.575054643052       -8.892540656659
W       -62.728004289647      -35.943696773085       -3.354420256655
W       -65.864404500690      -30.205192079955       -2.102040154077
W       -62.728004277124      -20.407463999114      -10.050360728316
W       -65.864404557151      -26.085406954542       -8.892540656659
W       -62.728004283390      -24.454049084575       -3.354420256655
W       -65.864404494434      -18.715544391444       -2.102040154077
W       -62.728004270867       -8.917816310604      -10.050360728316
W       -65.864404550895      -14.595759266032       -8.892540656659
W       -62.728004277134      -12.964401396065       -3.354420256655
W       -65.864404488177       -7.225896702934       -2.102040154077
W       -62.728004264611        2.571831377906      -10.050360728316
W       -65.864404538366       -3.106111152404       -8.892540656659
W       -62.728004270878       -1.474753707554       -3.354420256655
W       -65.864404481921        4.263750985576       -2.102040154077
W       -62.728004421448       14.061479066417      -10.050360728316
W       -65.864404532110        8.383536536106       -8.892540656659
W       -62.728004264622       10.014893980956       -3.354420256655
W       -65.864404638758       15.753398674087       -2.102040154077
W       -62.728004415192       25.551126754927      -10.050360728316
W       -65.864404525854       19.873184224616       -8.892540656659
W       -62.728004421459       21.504541669467       -3.354420256655
W       -65.864404632502       27.243046362597       -2.102040154077
W       -62.728004408935       37.040774443437      -10.050360728316
W       -65.864404519597       31.362831913127       -8.892540656659
W       -62.728004415202       32.994189357977       -3.354420256655
W       -65.864404626246       38.732694051107       -2.102040154077
W       -62.728004402679       48.530422131948      -10.050360728316
W       -65.864404513341       42.852479601637       -8.892540656659
W       -62.728004408946       44.483837046487       -3.354420256655
W       -65.864404619989       50.222341739618       -2.102040154077
W       -62.728004396423       60.020069820458      -10.050360728316
W       -65.864404507085       54.342127290147       -8.892540656659
W       -62.728004402690       55.973484734998       -3.354420256655
W       -65.864404613733       61.711989428128       -2.102040154077
W       -62.728004390167       71.509717508969      -10.050360728316
W       -65.864404500829       65.831774978658       -8.892540656659
W       -62.728004396434       67.463132423508       -3.354420256655
W       -65.864404607477       73.201637116638       -2.102040154077
W       -62.728004383911       82.999365197479      -10.050360728316
W       -65.864404494573       77.321422667168       -8.892540656659
W       -62.728004390178       78.952780112018       -3.354420256655
W       -65.864404601221       84.691284805149       -2.102040154077
W       -62.728004377655       94.489012885989      -10.050360728316
W       -65.864404488316       88.811070355678       -8.892540656659
W       -62.728004383922       90.442427800529       -3.354420256655
W       -65.864404594965       96.180932493659       -2.102040154077
W       -62.728004371398      105.978660574500      -10.050360728316
W       -65.864404482060      100.300718044189       -8.892540656659
W       -62.728004377665      101.932075489039       -3.354420256655
W       -65.864404588709      107.670580182169       -2.102040154077
W       -62.728004365142      117.468308263010      -10.050360728316
W       -65.864404638897      111.790365732699       -8.892540656659
W       -62.728004371409      113.421723177549       -3.354420256655
W       -65.864404582452      119.160227870680       -2.102040154077
W       -62.728004358886      128.957955951520      -10.050360728316
W       -65.864404632641      123.280013421210       -8.892540656659
W       -62.728004365153      124.911370866060       -3.354420256655
W       -65.864404576196      130.649875559190       -2.102040154077
W       -62.728004352630      140.447603640031      -10.050360728316
W       -65.864404626385      134.769661109720       -8.892540656659
W       -62.728004358897      136.401018554570       -3.354420256655
W       -65.864404569940      142.139523247700       -2.102040154077
W       -62.728004346374      151.937251328541      -10.050360728316
W       -65.864404620128      146.259308798230       -8.892540656659
W       -62.728004352641      147.890666243080       -3.354420256655
W       -65.864404563684      153.629170936211       -2.102040154077
W       -62.728004340118      163.426899017051      -10.050360728316
W       -65.864404613872      157.748956486741       -8.892540656659
W       -62.728004346385      159.380313931591       -3.354420256655
W       -65.864404557428      165.118818624721       -2.102040154077
W       -62.728004333861      174.916546705562      -10.050360728316
W       -65.864404607616      169.238604175251       -8.892540656659
W       -62.728004340128      170.869961620101       -3.354420256655
W       -65.864404551172      176.608466313232       -2.102040154077
W       -62.728004327605      186.406194394072      -10.050360728316
W       -65.864404601360      180.728251863761       -8.892540656659
W       -62.728004333872      182.359609308611       -3.354420256655
W       -65.864404544915      188.098114001742       -2.102040154077
W       -62.728004321349      197.895842082582      -10.050360728316
W       -65.864404595104      192.217899552272       -8.892540656659
W       -62.728004327616      193.849256997122       -3.354420256655
W       -65.864404538659      199.587761690252       -2.102040154077
W       -62.728004315093      209.385489771093      -10.050360728316
W       -65.864404588848      203.707547240782       -8.892540656659
W       -62.728004321360      205.338904685632       -3.354420256655
W       -65.864404532403      211.077409378763       -2.102040154077
W       -56.455203861060     -204.241827440397      -10.050360728316
W       -59.591604134815     -209.919769970708       -8.892540656659
W       -56.455203867327     -208.288412525858       -3.354420256655
W       -59.591604078371     -202.549907832727       -2.102040154077
W       -56.455203854804     -192.752179751887      -10.050360728316
W       -59.591604128559     -198.430122282197       -8.892540656659
W       -56.455203861071     -196.798764837347       -3.354420256655
W       -59.591604072114     -191.060260144217       -2.102040154077
W       -56.455203848548     -181.262532063376      -10.050360728316
W       -59.591604122303     -186.940474593687       -8.892540656659
W       -56.455203848542     -185.309116723720       -3.354420256655
W       -59.591604065858     -179.570612455706       -2.102040154077
W       -56.455203842292     -169.772884374866      -10.050360728316
W       -59.591604116047     -175.450826905177       -8.892540656659
W       -56.455203842286     -173.819469035209       -3.354420256655
W       -59.591604059602     -168.080964767196       -2.102040154077
W       -56.455203836036     -158.283236686355      -10.050360728316
W       -59.591604109790     -163.961179216666       -8.892540656659
W       -56.455203836030     -162.329821346699       -3.354420256655
W       -59.591604053346     -156.591317078686       -2.102040154077
W       -56.455203992872     -146.793588997845      -10.050360728316
W       -59.591604103534     -152.471531528156       -8.892540656659
W       -56.455203829774     -150.840173658189       -3.354420256655
W       -59.591604210183     -145.101669390175       -2.102040154077
W       -56.455203986616     -135.303941309335      -10.050360728316
W       -59.591604097278     -140.981883839646       -8.892540656659
W       -56.455203986610     -139.350525969678       -3.354420256655
W       -59.591604203926     -133.612021701665       -2.102040154077
W       -56.455203980360     -123.814293620824      -10.050360728316
W       -59.591604091022     -129.492236151135       -8.892540656659
W       -56.455203980354     -127.860878281168       -3.354420256655
W       -59.591604197670     -122.122374013155       -2.102040154077
W       -56.455203974104     -112.324645932314      -10.050360728316
W       -59.591604084766     -118.002588462625       -8.892540656659
W       -56.455203974098     -116.371230592658       -3.354420256655
W       -59.591604191414     -110.632726324644       -2.102040154077
W       -56.455203967848     -100.834998243804      -10.050360728316
W       -59.591604078510     -106.512940774114       -8.892540656659
W       -56.455203967842     -104.881582904147       -3.354420256655
W       -59.591604185158      -99.143078636134       -2.102040154077
W       -56.455203961592      -89.345350555293      -10.050360728316
W       -59.591604072253      -95.023293085604       -8.892540656659
W       -56.455203961586      -93.391935215637       -3.354420256655
W       -59.591604178902      -87.653430947624       -2.102040154077
W       -56.455203949063      -77.855702441666      -10.050360728316
W       -59.591604065997      -83.533645397094       -8.892540656659
W       -56.455203955330      -81.902287527127       -3.354420256655
W       -59.591604172646      -76.163783259113       -2.102040154077
W       -56.455203942806      -66.366054753156      -10.050360728316
W       -59.591604059741      -72.043997708583       -8.892540656659
W       -56.455203949073      -70.412639838616       -3.354420256655
W       -59.591604166389      -64.674135570603       -2.102040154077
W       -56.455203936550      -54.876407064645      -10.050360728316
W       -59.591604053485      -60.554350020073       -8.892540656659
W       -56.455203942817      -58.922992150106       -3.354420256655
W       -59.591604160133      -53.184487882092       -2.102040154077
W       -56.455203930294      -43.386759376135      -10.050360728316
W       -59.591604210322      -49.064702331563       -8.892540656659
W       -56.455203936561      -47.433344461596       -3.354420256655
W       -59.591604153877      -41.694840193582       -2.102040154077
W       -56.455203924038      -31.897111687625      -10.050360728316
W       -59.591604204065      -37.575054643052       -8.892540656659
W       -56.455203930305      -35.943696773085       -3.354420256655
W       -59.591604141348      -30.205192079955       -2.102040154077
W       -56.455203917782      -20.407463999114      -10.050360728316
W       -59.591604197809      -26.085406954542       -8.892540656659
W       -56.455203924049      -24.454049084575       -3.354420256655
W       -59.591604135092      -18.715544391444       -2.102040154077
W       -56.455203911526       -8.917816310604      -10.050360728316
W       -59.591604191553      -14.595759266032       -8.892540656659
W       -56.455203917792      -12.964401396065       -3.354420256655
W       -59.591604128836       -7.225896702934       -2.102040154077
W       -56.455203905269        2.571831377906      -10.050360728316
W       -59.591604179024       -3.106111152404       -8.892540656659
W       -56.455203911536       -1.474753707554       -3.354420256655
W       -59.591604122580        4.263750985576       -2.102040154077
W       -56.455203899013       14.061479066417      -10.050360728316
W       -59.591604172768        8.383536536106       -8.892540656659
W       -56.455203905280       10.014893980956       -3.354420256655
W       -59.591604116323       15.753398674087       -2.102040154077
W       -56.455203892757       25.551126754927      -10.050360728316
W       -59.591604166512       19.873184224616       -8.892540656659
W       -56.455203899024       21.504541669467       -3.354420256655
W       -59.591604110067       27.243046362597       -2.102040154077
W       -56.455203886501       37.040774443437      -10.050360728316
W       -59.591604160256       31.362831913127       -8.892540656659
W       -56.455203892768       32.994189357977       -3.354420256655
W       -59.591604103811       38.732694051107       -2.102040154077
W       -56.455203880245       48.530422131948      -10.050360728316
W       -59.591604153999       42.852479601637       -8.892540656659
W       -56.455203886512       44.483837046487       -3.354420256655
W       -59.591604097555       50.222341739618       -2.102040154077
W       -56.455203873989       60.020069820458      -10.050360728316
W       -59.591604147743       54.342127290147       -8.892540656659
W       -56.455203880255       55.973484734998       -3.354420256655
W       -59.591604091299       61.711989428128       -2.102040154077
W       -56.455203867732       71.509717508969      -10.050360728316
W       -59.591604141487       65.831774978658       -8.892540656659
W       -56.455203873999       67.463132423508       -3.354420256655
W       -59.591604085043       73.201637116638       -2.102040154077
W       -56.455203861476       82.999365197479      -10.050360728316
W       -59.591604135231       77.321422667168       -8.892540656659
W       -56.455203867743       78.952780112018       -3.354420256655
W       -59.591604078786       84.691284805149       -2.102040154077
W       -56.455203855220       94.489012885989      -10.050360728316
W       -59.591604128975       88.811070355678       -8.892540656659
W       -56.455203861487       90.442427800529       -3.354420256655
W       -59.591604072530       96.180932493659       -2.102040154077
W       -56.455203848964      105.978660574500      -10.050360728316
W       -59.591604122719      100.300718044189       -8.892540656659
W       -56.455203855231      101.932075489039       -3.354420256655
W       -59.591604066274      107.670580182169       -2.102040154077
W       -56.455203842708      117.468308263010      -10.050360728316
W       -59.591604116462      111.790365732699       -8.892540656659
W       -56.455203848975      113.421723177549       -3.354420256655
W       -59.591604060018      119.160227870680       -2.102040154077
W       -56.455203836452      128.957955951520      -10.050360728316
W       -59.591604110206      123.280013421210       -8.892540656659
W       -56.455203842718      124.911370866060       -3.354420256655
W       -59.591604053762      130.649875559190       -2.102040154077
W       -56.455203993288      140.447603640031      -10.050360728316
W       -59.591604103950      134.769661109720       -8.892540656659
W       -56.455203836462      136.401018554570       -3.354420256655
W       -59.591604047506      142.139523247700       -2.102040154077
W       -56.455203987032      151.937251328541      -10.050360728316
W       -59.591604097694      146.259308798230       -8.892540656659
W       -56.455203993299      147.890666243080       -3.354420256655
W       -59.591604204342      153.629170936211       -2.102040154077
W       -56.455203980776      163.426899017051      -10.050360728316
W       -59.591604091438      157.748956486741       -8.892540656659
W       -56.455203987043      159.380313931591       -3.354420256655
W       -59.591604198086      165.118818624721       -2.102040154077
W       -56.455203974520      174.916546705562      -10.050360728316
W       -59.591604085182      169.238604175251       -8.892540656659
W       -56.455203980787      170.869961620101       -3.354420256655
W       -59.591604191830      176.608466313232       -2.102040154077
W       -56.455203968264      186.406194394072      -10.050360728316
W       -59.591604078925      180.728251863761       -8.892540656659
W       -56.455203974530      182.359609308611       -3.354420256655
W       -59.591604185574      188.098114001742       -2.102040154077
W       -56.455203962007      197.895842082582      -10.050360728316
W       -59.591604072669      192.217899552272       -8.892540656659
W       -56.455203968274      193.849256997122       -3.354420256655
W       -59.591604179317      199.587761690252       -2.102040154077
W       -56.455203955751      209.385489771093      -10.050360728316
W       -59.591604066413      203.707547240782       -8.892540656659
W       -56.455203962018      205.338904685632       -3.354420256655
W       -59.591604173061      211.077409378763       -2.102040154077
W       -50.182403501719     -204.241827440397      -10.050360728316
W       -53.318803775473     -209.919769970708       -8.892540656659
W       -50.182403507986     -208.288412525858       -3.354420256655
W       -53.318803719029     -202.549907832727       -2.102040154077
W       -50.182403495462     -192.752179751887      -10.050360728316
W       -53.318803769217     -198.430122282197       -8.892540656659
W       -50.182403501729     -196.798764837347       -3.354420256655
W       -53.318803712773     -191.060260144217       -2.102040154077
W       -50.182403489206     -181.262532063376      -10.050360728316
W       -53.318803762961     -186.940474593687       -8.892540656659
W       -50.182403489200     -185.309116723720       -3.354420256655
W       -53.318803706516     -179.570612455706       -2.102040154077
W       -50.182403482950     -169.772884374866      -10.050360728316
W       -53.318803756705     -175.450826905177       -8.892540656659
W       -50.182403482944     -173.819469035209       -3.354420256655
W       -53.318803700260     -168.080964767196       -2.102040154077
W       -50.182403476694     -158.283236686355      -10.050360728316
W       -53.318803750449     -163.961179216666       -8.892540656659
W       -50.182403476688     -162.329821346699       -3.354420256655
W       -53.318803694004     -156.591317078686       -2.102040154077
W       -50.182403470438     -146.793588997845      -10.050360728316
W       -53.318803744192     -152.471531528156       -8.892540656659
W       -50.182403470432     -150.840173658189       -3.354420256655
W       -53.318803687748     -145.101669390175       -2.102040154077
W       -50.182403464182     -135.303941309335      -10.050360728316
W       -53.318803737936     -140.981883839646       -8.892540656659
W       -50.182403464176     -139.350525969678       -3.354420256655
W       -53.318803681492     -133.612021701665       -2.102040154077
W       -50.182403457925     -123.814293620824      -10.050360728316
W       -53.318803731680     -129.492236151135       -8.892540656659
W       -50.182403457920     -127.860878281168       -3.354420256655
W       -53.318803675236     -122.122374013155       -2.102040154077
W       -50.182403451669     -112.324645932314      -10.050360728316
W       -53.318803725424     -118.002588462625       -8.892540656659
W       -50.182403451663     -116.371230592658       -3.354420256655
W       -53.318803668979     -110.632726324644       -2.102040154077
W       -50.182403445413     -100.834998243804      -10.050360728316
W       -53.318803719168     -106.512940774114       -8.892540656659
W       -50.182403445407     -104.881582904147       -3.354420256655
W       -53.318803662723      -99.143078636134       -2.102040154077
W       -50.182403439157      -89.345350555293      -10.050360728316
W       -53.318803712912      -95.023293085604       -8.892540656659
W       -50.182403439151      -93.391935215637       -3.354420256655
W       -53.318803656467      -87.653430947624       -2.102040154077
W       -50.182403426628      -77.855702441666      -10.050360728316
W       -53.318803706655      -83.533645397094       -8.892540656659
W       -50.182403432895      -81.902287527127       -3.354420256655
W       -53.318803650211      -76.163783259113       -2.102040154077
W       -50.182403420372      -66.366054753156      -10.050360728316
W       -53.318803700399      -72.043997708583       -8.892540656659
W       -50.182403426639      -70.412639838616       -3.354420256655
W       -53.318803643955      -64.674135570603       -2.102040154077
W       -50.182403414116      -54.876407064645      -10.050360728316
W       -53.318803694143      -60.554350020073       -8.892540656659
W       -50.182403420383      -58.922992150106       -3.354420256655
W       -53.318803637699      -53.184487882092       -2.102040154077
W       -50.182403407859      -43.386759376135      -10.050360728316
W       -53.318803687887      -49.064702331563       -8.892540656659
W       -50.182403414126      -47.433344461596       -3.354420256655
W       -53.318803631442      -41.694840193582       -2.102040154077
W       -50.182403401603      -31.897111687625      -10.050360728316
W       -53.318803681631      -37.575054643052       -8.892540656659
W       -50.182403407870      -35.943696773085       -3.354420256655
W       -53.318803618913      -30.205192079955       -2.102040154077
W       -50.182403395347      -20.407463999114      -10.050360728316
W       -53.318803675375      -26.085406954542       -8.892540656659
W       -50.182403401614      -24.454049084575       -3.354420256655
W       -53.318803612657      -18.715544391444       -2.102040154077
W       -50.182403552184       -8.917816310604      -10.050360728316
W       -53.318803669118      -14.595759266032       -8.892540656659
W       -50.182403395358      -12.964401396065       -3.354420256655
W       -53.318803769494       -7.225896702934       -2.102040154077
W       -50.182403545928        2.571831377906      -10.050360728316
W       -53.318803656589       -3.106111152404       -8.892540656659
W       -50.182403552195       -1.474753707554       -3.354420256655
W       -53.318803763238        4.263750985576       -2.102040154077
W       -50.182403539671       14.061479066417      -10.050360728316
W       -53.318803650333        8.383536536106       -8.892540656659
W       -50.182403545938       10.014893980956       -3.354420256655
W       -53.318803756982       15.753398674087       -2.102040154077
W       -50.182403533415       25.551126754927      -10.050360728316
W       -53.318803644077       19.873184224616       -8.892540656659
W       -50.182403539682       21.504541669467       -3.354420256655
W       -53.318803750725       27.243046362597       -2.102040154077
W       -50.182403527159       37.040774443437      -10.050360728316
W       -53.318803637821       31.362831913127       -8.892540656659
W       -50.182403533426       32.994189357977       -3.354420256655
W       -53.318803744469       38.732694051107       -2.102040154077
W       -50.182403520903       48.530422131948      -10.050360728316
W       -53.318803631565       42.852479601637       -8.892540656659
W       -50.182403527170       44.483837046487       -3.354420256655
W       -53.318803738213       50.222341739618       -2.102040154077
W       -50.182403514647       60.020069820458      -10.050360728316
W       -53.318803625309       54.342127290147       -8.892540656659
W       -50.182403520914       55.973484734998       -3.354420256655
W       -53.318803731957       61.711989428128       -2.102040154077
W       -50.182403508391       71.509717508969      -10.050360728316
W       -53.318803619052       65.831774978658       -8.892540656659
W       -50.182403514658       67.463132423508       -3.354420256655
W       -53.318803725701       73.201637116638       -2.102040154077
W       -50.182403502134       82.999365197479      -10.050360728316
W       -53.318803612796       77.321422667168       -8.892540656659
W       -50.182403508401       78.952780112018       -3.354420256655
W       -53.318803719445       84.691284805149       -2.102040154077
W       -50.182403495878       94.489012885989      -10.050360728316
W       -53.318803769633       88.811070355678       -8.892540656659
W       -50.182403502145       90.442427800529       -3.354420256655
W       -53.318803713188       96.180932493659       -2.102040154077
W       -50.182403489622      105.978660574500      -10.050360728316
W       -53.318803763377      100.300718044189       -8.892540656659
W       -50.182403495889      101.932075489039       -3.354420256655
W       -53.318803706932      107.670580182169       -2.102040154077
W       -50.182403483366      117.468308263010      -10.050360728316
W       -53.318803757121      111.790365732699       -8.892540656659
W       -50.182403489633      113.421723177549       -3.354420256655
W       -53.318803700676      119.160227870680       -2.102040154077
W       -50.182403477110      128.957955951520      -10.050360728316
W       -53.318803750864      123.280013421210       -8.892540656659
W       -50.182403483377      124.911370866060       -3.354420256655
W       -53.318803694420      130.649875559190       -2.102040154077
W       -50.182403470854      140.447603640031      -10.050360728316
W       -53.318803744608      134.769661109720       -8.892540656659
W       -50.182403477121      136.401018554570       -3.354420256655
W       -53.318803688164      142.139523247700       -2.102040154077
W       -50.182403464597      151.937251328541      -10.050360728316
W       -53.318803738352      146.259308798230       -8.892540656659
W       -50.182403470864      147.890666243080       -3.354420256655
W       -53.318803681908      153.629170936211       -2.102040154077
W       -50.182403458341      163.426899017051      -10.050360728316
W       -53.318803732096      157.748956486741       -8.892540656659
W       -50.182403464608      159.380313931591       -3.354420256655
W       -53.318803675651      165.118818624721       -2.102040154077
W       -50.182403452085      174.916546705562      -10.050360728316
W       -53.318803725840      169.238604175251       -8.892540656659
W       -50.182403458352      170.869961620101       -3.354420256655
W       -53.318803669395      176.608466313232       -2.102040154077
W       -50.182403445829      186.406194394072      -10.050360728316
W       -53.318803719584      180.728251863761       -8.892540656659
W       -50.182403452096      182.359609308611       -3.354420256655
W       -53.318803663139      188.098114001742       -2.102040154077
W       -50.182403439573      197.895842082582      -10.050360728316
W       -53.318803713327      192.217899552272       -8.892540656659
W       -50.182403445840      193.849256997122       -3.354420256655
W       -53.318803656883      199.587761690252       -2.102040154077
W       -50.182403433317      209.385489771093      -10.050360728316
W       -53.318803707071      203.707547240782       -8.892540656659
W       -50.182403439584      205.338904685632       -3.354420256655
W       -53.318803650627      211.077409378763       -2.102040154077
W       -43.909602979284     -204.241827440397      -10.050360728316
W       -47.046003253039     -209.919769970708       -8.892540656659
W       -43.909602985551     -208.288412525858       -3.354420256655
W       -47.046003196594     -202.549907832727       -2.102040154077
W       -43.909602973028     -192.752179751887      -10.050360728316
W       -47.046003246783     -198.430122282197       -8.892540656659
W       -43.909602979295     -196.798764837347       -3.354420256655
W       -47.046003190338     -191.060260144217       -2.102040154077
W       -43.909602966772     -181.262532063376      -10.050360728316
W       -47.046003240526     -186.940474593687       -8.892540656659
W       -43.909602966766     -185.309116723720       -3.354420256655
W       -47.046003184082     -179.570612455706       -2.102040154077
W       -43.909603123608     -169.772884374866      -10.050360728316
W       -47.046003234270     -175.450826905177       -8.892540656659
W       -43.909602960510     -173.819469035209       -3.354420256655
W       -47.046003340918     -168.080964767196       -2.102040154077
W       -43.909603117352     -158.283236686355      -10.050360728316
W       -47.046003228014     -163.961179216666       -8.892540656659
W       -43.909603117346     -162.329821346699       -3.354420256655
W       -47.046003334662     -156.591317078686       -2.102040154077
W       -43.909603111096     -146.793588997845      -10.050360728316
W       -47.046003221758     -152.471531528156       -8.892540656659
W       -43.909603111090     -150.840173658189       -3.354420256655
W       -47.046003328406     -145.101669390175       -2.102040154077
W       -43.909603104840     -135.303941309335      -10.050360728316
W       -47.046003215502     -140.981883839646       -8.892540656659
W       -43.909603104834     -139.350525969678       -3.354420256655
W       -47.046003322150     -133.612021701665       -2.102040154077
W       -43.909603098584     -123.814293620824      -10.050360728316
W       -47.046003209246     -129.492236151135       -8.892540656659
W       -43.909603098578     -127.860878281168       -3.354420256655
W       -47.046003315894     -122.122374013155       -2.102040154077
W       -43.909603092328     -112.324645932314      -10.050360728316
W       -47.046003202989     -118.002588462625       -8.892540656659
W       -43.909603092322     -116.371230592658       -3.354420256655
W       -47.046003309638     -110.632726324644       -2.102040154077
W       -43.909603086071     -100.834998243804      -10.050360728316
W       -47.046003196733     -106.512940774114       -8.892540656659
W       -43.909603086065     -104.881582904147       -3.354420256655
W       -47.046003303381      -99.143078636134       -2.102040154077
W       -43.909603079815      -89.345350555293      -10.050360728316
W       -47.046003190477      -95.023293085604       -8.892540656659
W       -43.909603079809      -93.391935215637       -3.354420256655
W       -47.046003297125      -87.653430947624       -2.102040154077
W       -43.909603067286      -77.855702441666      -10.050360728316
W       -47.046003184221      -83.533645397094       -8.892540656659
W       -43.909603073553      -81.902287527127       -3.354420256655
W       -47.046003290869      -76.163783259113       -2.102040154077
W       -43.909603061030      -66.366054753156      -10.050360728316
W       -47.046003341057      -72.043997708583       -8.892540656659
W       -43.909603067297      -70.412639838616       -3.354420256655
W       -47.046003284613      -64.674135570603       -2.102040154077
W       -43.909603054774      -54.876407064645      -10.050360728316
W       -47.046003334801      -60.554350020073       -8.892540656659
W       -43.909603061041      -58.922992150106       -3.354420256655
W       -47.046003278357      -53.184487882092       -2.102040154077
W       -43.909603048518      -43.386759376135      -10.050360728316
W       -47.046003328545      -49.064702331563       -8.892540656659
W       -43.909603054785      -47.433344461596       -3.354420256655
W       -47.046003272101      -41.694840193582       -2.102040154077
W       -43.909603042262      -31.897111687625      -10.050360728316
W       -47.046003322289      -37.575054643052       -8.892540656659
W       -43.909603048528      -35.943696773085       -3.354420256655
W       -47.046003259572      -30.205192079955       -2.102040154077
W       -43.909603036005      -20.407463999114      -10.050360728316
W       -47.046003316033      -26.085406954542       -8.892540656659
W       -43.909603042272      -24.454049084575       -3.354420256655
W       -47.046003253315      -18.715544391444       -2.102040154077
W       -43.909603029749       -8.917816310604      -10.050360728316
W       -47.046003309777      -14.595759266032       -8.892540656659
W       -43.909603036016      -12.964401396065       -3.354420256655
W       -47.046003247059       -7.225896702934       -2.102040154077
W       -43.909603023493        2.571831377906      -10.050360728316
W       -47.046003297248       -3.106111152404       -8.892540656659
W       -43.909603029760       -1.474753707554       -3.354420256655
W       -47.046003240803        4.263750985576       -2.102040154077
W       -43.909603017237       14.061479066417      -10.050360728316
W       -47.046003290992        8.383536536106       -8.892540656659
W       -43.909603023504       10.014893980956       -3.354420256655
W       -47.046003234547       15.753398674087       -2.102040154077
W       -43.909603010981       25.551126754927      -10.050360728316
W       -47.046003284735       19.873184224616       -8.892540656659
W       -43.909603017248       21.504541669467       -3.354420256655
W       -47.046003228291       27.243046362597       -2.102040154077
W       -43.909603004725       37.040774443437      -10.050360728316
W       -47.046003278479       31.362831913127       -8.892540656659
W       -43.909603010991       32.994189357977       -3.354420256655
W       -47.046003222035       38.732694051107       -2.102040154077
W       -43.909602998468       48.530422131948      -10.050360728316
W       -47.046003272223       42.852479601637       -8.892540656659
W       -43.909603004735       44.483837046487       -3.354420256655
W       -47.046003215778       50.222341739618       -2.102040154077
W       -43.909602992212       60.020069820458      -10.050360728316
W       -47.046003265967       54.342127290147       -8.892540656659
W       -43.909602998479       55.973484734998       -3.354420256655
W       -47.046003209522       61.711989428128       -2.102040154077
W       -43.909602985956       71.509717508969      -10.050360728316
W       -47.046003259711       65.831774978658       -8.892540656659
W       -43.909602992223       67.463132423508       -3.354420256655
W       -47.046003203266       73.201637116638       -2.102040154077
W       -43.909602979700       82.999365197479      -10.050360728316
W       -47.046003253455       77.321422667168       -8.892540656659
W       -43.909602985967       78.952780112018       -3.354420256655
W       -47.046003197010       84.691284805149       -2.102040154077
W       -43.909602973444       94.489012885989      -10.050360728316
W       -47.046003247198       88.811070355678       -8.892540656659
W       -43.909602979711       90.442427800529       -3.354420256655
W       -47.046003190754       96.180932493659       -2.102040154077
W       -43.909602967187      105.978660574500      -10.050360728316
W       -47.046003240942      100.300718044189       -8.892540656659
W       -43.909602973454      101.932075489039       -3.354420256655
W       -47.046003184498      107.670580182169       -2.102040154077
W       -43.909602960931      117.468308263010      -10.050360728316
W       -47.046003234686      111.790365732699       -8.892540656659
W       -43.909602967198      113.421723177549       -3.354420256655
W       -47.046003178241      119.160227870680       -2.102040154077
W       -43.909603117768      128.957955951520      -10.050360728316
W       -47.046003228430      123.280013421210       -8.892540656659
W       -43.909603124035      124.911370866060       -3.354420256655
W       -47.046003335078      130.649875559190       -2.102040154077
W       -43.909603111512      140.447603640031      -10.050360728316
W       -47.046003222174      134.769661109720       -8.892540656659
W       -43.909603117779      136.401018554570       -3.354420256655
W       -47.046003328822      142.139523247700       -2.102040154077
W       -43.909603105256      151.937251328541      -10.050360728316
W       -47.046003215918      146.259308798230       -8.892540656659
W       -43.909603111523      147.890666243080       -3.354420256655
W       -47.046003322566      153.629170936211       -2.102040154077
W       -43.909603098999      163.426899017051      -10.050360728316
W       -47.046003209661      157.748956486741       -8.892540656659
W       -43.909603105266      159.380313931591       -3.354420256655
W       -47.046003316310      165.118818624721       -2.102040154077
W       -43.909603092743      174.916546705562      -10.050360728316
W       -47.046003203405      169.238604175251       -8.892540656659
W       -43.909603099010      170.869961620101       -3.354420256655
W       -47.046003310053      176.608466313232       -2.102040154077
W       -43.909603086487      186.406194394072      -10.050360728316
W       -47.046003197149      180.728251863761       -8.892540656659
W       -43.909603092754      182.359609308611       -3.354420256655
W       -47.046003303797      188.098114001742       -2.102040154077
W       -43.909603080231      197.895842082582      -10.050360728316
W       -47.046003190893      192.217899552272       -8.892540656659
W       -43.909603086498      193.849256997122       -3.354420256655
W       -47.046003297541      199.587761690252       -2.102040154077
W       -43.909603073975      209.385489771093      -10.050360728316
W       -47.046003184637      203.707547240782       -8.892540656659
W       -43.909603080242      205.338904685632       -3.354420256655
W       -47.046003291285      211.077409378763       -2.102040154077
W       -37.636802619942     -204.241827440397      -10.050360728316
W       -40.773202893697     -209.919769970708       -8.892540656659
W       -37.636802626209     -208.288412525858       -3.354420256655
W       -40.773202837252     -202.549907832727       -2.102040154077
W       -37.636802613686     -192.752179751887      -10.050360728316
W       -40.773202887441     -198.430122282197       -8.892540656659
W       -37.636802619953     -196.798764837347       -3.354420256655
W       -40.773202830996     -191.060260144217       -2.102040154077
W       -37.636802607430     -181.262532063376      -10.050360728316
W       -40.773202881185     -186.940474593687       -8.892540656659
W       -37.636802607424     -185.309116723720       -3.354420256655
W       -40.773202824740     -179.570612455706       -2.102040154077
W       -37.636802601174     -169.772884374866      -10.050360728316
W       -40.773202874928     -175.450826905177       -8.892540656659
W       -37.636802601168     -173.819469035209       -3.354420256655
W       -40.773202818484     -168.080964767196       -2.102040154077
W       -37.636802594918     -158.283236686355      -10.050360728316
W       -40.773202868672     -163.961179216666       -8.892540656659
W       -37.636802594912     -162.329821346699       -3.354420256655
W       -40.773202812228     -156.591317078686       -2.102040154077
W       -37.636802588661     -146.793588997845      -10.050360728316
W       -40.773202862416     -152.471531528156       -8.892540656659
W       -37.636802588656     -150.840173658189       -3.354420256655
W       -40.773202805972     -145.101669390175       -2.102040154077
W       -37.636802582405     -135.303941309335      -10.050360728316
W       -40.773202856160     -140.981883839646       -8.892540656659
W       -37.636802582399     -139.350525969678       -3.354420256655
W       -40.773202799715     -133.612021701665       -2.102040154077
W       -37.636802576149     -123.814293620824      -10.050360728316
W       -40.773202849904     -129.492236151135       -8.892540656659
W       -37.636802576143     -127.860878281168       -3.354420256655
W       -40.773202793459     -122.122374013155       -2.102040154077
W       -37.636802569893     -112.324645932314      -10.050360728316
W       -40.773202843648     -118.002588462625       -8.892540656659
W       -37.636802569887     -116.371230592658       -3.354420256655
W       -40.773202787203     -110.632726324644       -2.102040154077
W       -37.636802563637     -100.834998243804      -10.050360728316
W       -40.773202837391     -106.512940774114       -8.892540656659
W       -37.636802563631     -104.881582904147       -3.354420256655
W       -40.773202780947      -99.143078636134       -2.102040154077
W       -37.636802557381      -89.345350555293      -10.050360728316
W       -40.773202831135      -95.023293085604       -8.892540656659
W       -37.636802557375      -93.391935215637       -3.354420256655
W       -40.773202774691      -87.653430947624       -2.102040154077
W       -37.636802544852      -77.855702441666      -10.050360728316
W       -40.773202824879      -83.533645397094       -8.892540656659
W       -37.636802551119      -81.902287527127       -3.354420256655
W       -40.773202768435      -76.163783259113       -2.102040154077
W       -37.636802538595      -66.366054753156      -10.050360728316
W       -40.773202818623      -72.043997708583       -8.892540656659
W       -37.636802544862      -70.412639838616       -3.354420256655
W       -40.773202762178      -64.674135570603       -2.102040154077
W       -37.636802532339      -54.876407064645      -10.050360728316
W       -40.773202812367      -60.554350020073       -8.892540656659
W       -37.636802538606      -58.922992150106       -3.354420256655
W       -40.773202755922      -53.184487882092       -2.102040154077
W       -37.636802526083      -43.386759376135      -10.050360728316
W       -40.773202806111      -49.064702331563       -8.892540656659
W       -37.636802532350      -47.433344461596       -3.354420256655
W       -40.773202749666      -41.694840193582       -2.102040154077
W       -37.636802682920      -31.897111687625      -10.050360728316
W       -40.773202799854      -37.575054643052       -8.892540656659
W       -37.636802526094      -35.943696773085       -3.354420256655
W       -40.773202900230      -30.205192079955       -2.102040154077
W       -37.636802676664      -20.407463999114      -10.050360728316
W       -40.773202793598      -26.085406954542       -8.892540656659
W       -37.636802682931      -24.454049084575       -3.354420256655
W       -40.773202893974      -18.715544391444       -2.102040154077
W       -37.636802670407       -8.917816310604      -10.050360728316
W       -40.773202787342      -14.595759266032       -8.892540656659
W       -37.636802676674      -12.964401396065       -3.354420256655
W       -40.773202887718       -7.225896702934       -2.102040154077
W       -37.636802664151        2.571831377906      -10.050360728316
W       -40.773202774813       -3.106111152404       -8.892540656659
W       -37.636802670418       -1.474753707554       -3.354420256655
W       -40.773202881461        4.263750985576       -2.102040154077
W       -37.636802657895       14.061479066417      -10.050360728316
W       -40.773202768557        8.383536536106       -8.892540656659
W       -37.636802664162       10.014893980956       -3.354420256655
W       -40.773202875205       15.753398674087       -2.102040154077
W       -37.636802651639       25.551126754927      -10.050360728316
W       -40.773202762301       19.873184224616       -8.892540656659
W       -37.636802657906       21.504541669467       -3.354420256655
W       -40.773202868949       27.243046362597       -2.102040154077
W       -37.636802645383       37.040774443437      -10.050360728316
W       -40.773202756045       31.362831913127       -8.892540656659
W       -37.636802651650       32.994189357977       -3.354420256655
W       -40.773202862693       38.732694051107       -2.102040154077
W       -37.636802639127       48.530422131948      -10.050360728316
W       -40.773202749788       42.852479601637       -8.892540656659
W       -37.636802645394       44.483837046487       -3.354420256655
W       -40.773202856437       50.222341739618       -2.102040154077
W       -37.636802632870       60.020069820458      -10.050360728316
W       -40.773202743532       54.342127290147       -8.892540656659
W       -37.636802639137       55.973484734998       -3.354420256655
W       -40.773202850181       61.711989428128       -2.102040154077
W       -37.636802626614       71.509717508969      -10.050360728316
W       -40.773202900369       65.831774978658       -8.892540656659
W       -37.636802632881       67.463132423508       -3.354420256655
W       -40.773202843924       73.201637116638       -2.102040154077
W       -37.636802620358       82.999365197479      -10.050360728316
W       -40.773202894113       77.321422667168       -8.892540656659
W       -37.636802626625       78.952780112018       -3.354420256655
W       -40.773202837668       84.691284805149       -2.102040154077
W       -37.636802614102       94.489012885989      -10.050360728316
W       -40.773202887857       88.811070355678       -8.892540656659
W       -37.636802620369       90.442427800529       -3.354420256655
W       -40.773202831412       96.180932493659       -2.102040154077
W       -37.636802607846      105.978660574500      -10.050360728316
W       -40.773202881600      100.300718044189       -8.892540656659
W       -37.636802614113      101.932075489039       -3.354420256655
W       -40.773202825156      107.670580182169       -2.102040154077
W       -37.636802601590      117.468308263010      -10.050360728316
W       -40.773202875344      111.790365732699       -8.892540656659
W       -37.636802607856      113.421723177549       -3.354420256655
W       -40.773202818900      119.160227870680       -2.102040154077
W       -37.636802595333      128.957955951520      -10.050360728316
W       -40.773202869088      123.280013421210       -8.892540656659
W       -37.636802601600      124.911370866060       -3.354420256655
W       -40.773202812644      130.649875559190       -2.102040154077
W       -37.636802589077      140.447603640031      -10.050360728316
W       -40.773202862832      134.769661109720       -8.892540656659
W       -37.636802595344      136.401018554570       -3.354420256655
W       -40.773202806387      142.139523247700       -2.102040154077
W       -37.636802582821      151.937251328541      -10.050360728316
W       -40.773202856576      146.259308798230       -8.892540656659
W       -37.636802589088      147.890666243080       -3.354420256655
W       -40.773202800131      153.629170936211       -2.102040154077
W       -37.636802576565      163.426899017051      -10.050360728316
W       -40.773202850320      157.748956486741       -8.892540656659
W       -37.636802582832      159.380313931591       -3.354420256655
W       -40.773202793875      165.118818624721       -2.102040154077
W       -37.636802570309      174.916546705562      -10.050360728316
W       -40.773202844063      169.238604175251       -8.892540656659
W       -37.636802576576      170.869961620101       -3.354420256655
W       -40.773202787619      176.608466313232       -2.102040154077
W       -37.636802564053      186.406194394072      -10.050360728316
W       -40.773202837807      180.728251863761       -8.892540656659
W       -37.636802570319      182.359609308611       -3.354420256655
W       -40.773202781363      188.098114001742       -2.102040154077
W       -37.636802557796      197.895842082582      -10.050360728316
W       -40.773202831551      192.217899552272       -8.892540656659
W       -37.636802564063      193.849256997122       -3.354420256655
W       -40.773202775107      199.587761690252       -2.102040154077
W       -37.636802551540      209.385489771093      -10.050360728316
W       -40.773202825295      203.707547240782       -8.892540656659
W       -37.636802557807      205.338904685632       -3.354420256655
W       -40.773202768850      211.077409378763       -2.102040154077
W       -31.364002097508     -204.241827440397      -10.050360728316
W       -34.500402371262     -209.919769970708       -8.892540656659
W       -31.364002103775     -208.288412525858       -3.354420256655
W       -34.500402314818     -202.549907832727       -2.102040154077
W       -31.364002254344     -192.752179751887      -10.050360728316
W       -34.500402365006     -198.430122282197       -8.892540656659
W       -31.364002097518     -196.798764837347       -3.354420256655
W       -34.500402471654     -191.060260144217       -2.102040154077
W       -31.364002248088     -181.262532063376      -10.050360728316
W       -34.500402358750     -186.940474593687       -8.892540656659
W       -31.364002248082     -185.309116723720       -3.354420256655
W       -34.500402465398     -179.570612455706       -2.102040154077
W       -31.364002241832     -169.772884374866      -10.050360728316
W       -34.500402352494     -175.450826905177       -8.892540656659
W       -31.364002241826     -173.819469035209       -3.354420256655
W       -34.500402459142     -168.080964767196       -2.102040154077
W       -31.364002235576     -158.283236686355      -10.050360728316
W       -34.500402346238     -163.961179216666       -8.892540656659
W       -31.364002235570     -162.329821346699       -3.354420256655
W       -34.500402452886     -156.591317078686       -2.102040154077
W       -31.364002229320     -146.793588997845      -10.050360728316
W       -34.500402339981     -152.471531528156       -8.892540656659
W       -31.364002229314     -150.840173658189       -3.354420256655
W       -34.500402446630     -145.101669390175       -2.102040154077
W       -31.364002223063     -135.303941309335      -10.050360728316
W       -34.500402333725     -140.981883839646       -8.892540656659
W       -31.364002223058     -139.350525969678       -3.354420256655
W       -34.500402440374     -133.612021701665       -2.102040154077
W       -31.364002216807     -123.814293620824      -10.050360728316
W       -34.500402327469     -129.492236151135       -8.892540656659
W       -31.364002216801     -127.860878281168       -3.354420256655
W       -34.500402434117     -122.122374013155       -2.102040154077
W       -31.364002210551     -112.324645932314      -10.050360728316
W       -34.500402321213     -118.002588462625       -8.892540656659
W       -31.364002210545     -116.371230592658       -3.354420256655
W       -34.500402427861     -110.632726324644       -2.102040154077
W       -31.364002204295     -100.834998243804      -10.050360728316
W       -34.500402314957     -106.512940774114       -8.892540656659
W       -31.364002204289     -104.881582904147       -3.354420256655
W       -34.500402421605      -99.143078636134       -2.102040154077
W       -31.364002198039      -89.345350555293      -10.050360728316
W       -34.500402471793      -95.023293085604       -8.892540656659
W       -31.364002198033      -93.391935215637       -3.354420256655
W       -34.500402415349      -87.653430947624       -2.102040154077
W       -31.364002185510      -77.855702441666      -10.050360728316
W       -34.500402465537      -83.533645397094       -8.892540656659
W       -31.364002191777      -81.902287527127       -3.354420256655
W       -34.500402409093      -76.163783259113       -2.102040154077
W       -31.364002179254      -66.366054753156      -10.050360728316
W       -34.500402459281      -72.043997708583       -8.892540656659
W       -31.364002185521      -70.412639838616       -3.354420256655
W       -34.500402402837      -64.674135570603       -2.102040154077
W       -31.364002172997      -54.876407064645      -10.050360728316
W       -34.500402453025      -60.554350020073       -8.892540656659
W       -31.364002179264      -58.922992150106       -3.354420256655
W       -34.500402396580      -53.184487882092       -2.102040154077
W       -31.364002166741      -43.386759376135      -10.050360728316
W       -34.500402446769      -49.064702331563       -8.892540656659
W       -31.364002173008      -47.433344461596       -3.354420256655
W       -34.500402390324      -41.694840193582       -2.102040154077
W       -31.364002160485      -31.897111687625      -10.050360728316
W       -34.500402440513      -37.575054643052       -8.892540656659
W       -31.364002166752      -35.943696773085       -3.354420256655
W       -34.500402377795      -30.205192079955       -2.102040154077
W       -31.364002154229      -20.407463999114      -10.050360728316
W       -34.500402434256      -26.085406954542       -8.892540656659
W       -31.364002160496      -24.454049084575       -3.354420256655
W       -34.500402371539      -18.715544391444       -2.102040154077
W       -31.364002147973       -8.917816310604      -10.050360728316
W       -34.500402428000      -14.595759266032       -8.892540656659
W       -31.364002154240      -12.964401396065       -3.354420256655
W       -34.500402365283       -7.225896702934       -2.102040154077
W       -31.364002141717        2.571831377906      -10.050360728316
W       -34.500402415471       -3.106111152404       -8.892540656659
W       -31.364002147984       -1.474753707554       -3.354420256655
W       -34.500402359027        4.263750985576       -2.102040154077
W       -31.364002135460       14.061479066417      -10.050360728316
W       -34.500402409215        8.383536536106       -8.892540656659
W       -31.364002141727       10.014893980956       -3.354420256655
W       -34.500402352771       15.753398674087       -2.102040154077
W       -31.364002129204       25.551126754927      -10.050360728316
W       -34.500402402959       19.873184224616       -8.892540656659
W       -31.364002135471       21.504541669467       -3.354420256655
W       -34.500402346514       27.243046362597       -2.102040154077
W       -31.364002122948       37.040774443437      -10.050360728316
W       -34.500402396703       31.362831913127       -8.892540656659
W       -31.364002129215       32.994189357977       -3.354420256655
W       -34.500402340258       38.732694051107       -2.102040154077
W       -31.364002116692       48.530422131948      -10.050360728316
W       -34.500402390447       42.852479601637       -8.892540656659
W       -31.364002122959       44.483837046487       -3.354420256655
W       -34.500402334002       50.222341739618       -2.102040154077
W       -31.364002110436       60.020069820458      -10.050360728316
W       -34.500402384190       54.342127290147       -8.892540656659
W       -31.364002116703       55.973484734998       -3.354420256655
W       -34.500402327746       61.711989428128       -2.102040154077
W       -31.364002104180       71.509717508969      -10.050360728316
W       -34.500402377934       65.831774978658       -8.892540656659
W       -31.364002110447       67.463132423508       -3.354420256655
W       -34.500402321490       73.201637116638       -2.102040154077
W       -31.364002097923       82.999365197479      -10.050360728316
W       -34.500402371678       77.321422667168       -8.892540656659
W       -31.364002104190       78.952780112018       -3.354420256655
W       -34.500402315234       84.691284805149       -2.102040154077
W       -31.364002091667       94.489012885989      -10.050360728316
W       -34.500402365422       88.811070355678       -8.892540656659
W       -31.364002097934       90.442427800529       -3.354420256655
W       -34.500402308977       96.180932493659       -2.102040154077
W       -31.364002248504      105.978660574500      -10.050360728316
W       -34.500402359166      100.300718044189       -8.892540656659
W       -31.364002254771      101.932075489039       -3.354420256655
W       -34.500402465814      107.670580182169       -2.102040154077
W       -31.364002242248      117.468308263010      -10.050360728316
W       -34.500402352910      111.790365732699       -8.892540656659
W       -31.364002248515      113.421723177549       -3.354420256655
W       -34.500402459558      119.160227870680       -2.102040154077
W       -31.364002235992      128.957955951520      -10.050360728316
W       -34.500402346653      123.280013421210       -8.892540656659
W       -31.364002242259      124.911370866060       -3.354420256655
W       -34.500402453302      130.649875559190       -2.102040154077
W       -31.364002229735      140.447603640031      -10.050360728316
W       -34.500402340397      134.769661109720       -8.892540656659
W       -31.364002236002      136.401018554570       -3.354420256655
W       -34.500402447046      142.139523247700       -2.102040154077
W       -31.364002223479      151.937251328541      -10.050360728316
W       -34.500402334141      146.259308798230       -8.892540656659
W       -31.364002229746      147.890666243080       -3.354420256655
W       -34.500402440789      153.629170936211       -2.102040154077
W       -31.364002217223      163.426899017051      -10.050360728316
W       -34.500402327885      157.748956486741       -8.892540656659
W       -31.364002223490      159.380313931591       -3.354420256655
W       -34.500402434533      165.118818624721       -2.102040154077
W       -31.364002210967      174.916546705562      -10.050360728316
W       -34.500402321629      169.238604175251       -8.892540656659
W       -31.364002217234      170.869961620101       -3.354420256655
W       -34.500402428277      176.608466313232       -2.102040154077
W       -31.364002204711      186.406194394072      -10.050360728316
W       -34.500402315373      180.728251863761       -8.892540656659
W       -31.364002210978      182.359609308611       -3.354420256655
W       -34.500402422021      188.098114001742       -2.102040154077
W       -31.364002198455      197.895842082582      -10.050360728316
W       -34.500402309116      192.217899552272       -8.892540656659
W       -31.364002204722      193.849256997122       -3.354420256655
W       -34.500402415765      199.587761690252       -2.102040154077
W       -31.364002192198      209.385489771093      -10.050360728316
W       -34.500402465953      203.707547240782       -8.892540656659
W       -31.364002198465      205.338904685632       -3.354420256655
W       -34.500402409509      211.077409378763       -2.102040154077
W       -25.091201738166     -204.241827440397      -10.050360728316
W       -28.227602011921     -209.919769970708       -8.892540656659
W       -25.091201744433     -208.288412525858       -3.354420256655
W       -28.227601955476     -202.549907832727       -2.102040154077
W       -25.091201731910     -192.752179751887      -10.050360728316
W       -28.227602005664     -198.430122282197       -8.892540656659
W       -25.091201738177     -196.798764837347       -3.354420256655
W       -28.227601949220     -191.060260144217       -2.102040154077
W       -25.091201725654     -181.262532063376      -10.050360728316
W       -28.227601999408     -186.940474593687       -8.892540656659
W       -25.091201725648     -185.309116723720       -3.354420256655
W       -28.227601942964     -179.570612455706       -2.102040154077
W       -25.091201719397     -169.772884374866      -10.050360728316
W       -28.227601993152     -175.450826905177       -8.892540656659
W       -25.091201719392     -173.819469035209       -3.354420256655
W       -28.227601936708     -168.080964767196       -2.102040154077
W       -25.091201713141     -158.283236686355      -10.050360728316
W       -28.227601986896     -163.961179216666       -8.892540656659
W       -25.091201713135     -162.329821346699       -3.354420256655
W       -28.227601930451     -156.591317078686       -2.102040154077
W       -25.091201706885     -146.793588997845      -10.050360728316
W       -28.227601980640     -152.471531528156       -8.892540656659
W       -25.091201706879     -150.840173658189       -3.354420256655
W       -28.227601924195     -145.101669390175       -2.102040154077
W       -25.091201700629     -135.303941309335      -10.050360728316
W       -28.227601974384     -140.981883839646       -8.892540656659
W       -25.091201700623     -139.350525969678       -3.354420256655
W       -28.227601917939     -133.612021701665       -2.102040154077
W       -25.091201694373     -123.814293620824      -10.050360728316
W       -28.227601968127     -129.492236151135       -8.892540656659
W       -25.091201694367     -127.860878281168       -3.354420256655
W       -28.227601911683     -122.122374013155       -2.102040154077
W       -25.091201688117     -112.324645932314      -10.050360728316
W       -28.227601961871     -118.002588462625       -8.892540656659
W       -25.091201688111     -116.371230592658       -3.354420256655
W       -28.227601905427     -110.632726324644       -2.102040154077
W       -25.091201681860     -100.834998243804      -10.050360728316
W       -28.227601955615     -106.512940774114       -8.892540656659
W       -25.091201681855     -104.881582904147       -3.354420256655
W       -28.227601899171      -99.143078636134       -2.102040154077
W       -25.091201675604      -89.345350555293      -10.050360728316
W       -28.227601949359      -95.023293085604       -8.892540656659
W       -25.091201675598      -93.391935215637       -3.354420256655
W       -28.227601892914      -87.653430947624       -2.102040154077
W       -25.091201663075      -77.855702441666      -10.050360728316
W       -28.227601943103      -83.533645397094       -8.892540656659
W       -25.091201669342      -81.902287527127       -3.354420256655
W       -28.227601886658      -76.163783259113       -2.102040154077
W       -25.091201656819      -66.366054753156      -10.050360728316
W       -28.227601936847      -72.043997708583       -8.892540656659
W       -25.091201663086      -70.412639838616       -3.354420256655
W       -28.227601880402      -64.674135570603       -2.102040154077
W       -25.091201813656      -54.876407064645      -10.050360728316
W       -28.227601930590      -60.554350020073       -8.892540656659
W       -25.091201656830      -58.922992150106       -3.354420256655
W       -28.227602037239      -53.184487882092       -2.102040154077
W       -25.091201807400      -43.386759376135      -10.050360728316
W       -28.227601924334      -49.064702331563       -8.892540656659
W       -25.091201813666      -47.433344461596       -3.354420256655
W       -28.227602030982      -41.694840193582       -2.102040154077
W       -25.091201801143      -31.897111687625      -10.050360728316
W       -28.227601918078      -37.575054643052       -8.892540656659
W       -25.091201807410      -35.943696773085       -3.354420256655
W       -28.227602018454      -30.205192079955       -2.102040154077
W       -25.091201794887      -20.407463999114      -10.050360728316
W       -28.227601911822      -26.085406954542       -8.892540656659
W       -25.091201801154      -24.454049084575       -3.354420256655
W       -28.227602012197      -18.715544391444       -2.102040154077
W       -25.091201788631       -8.917816310604      -10.050360728316
W       -28.227601905566      -14.595759266032       -8.892540656659
W       -25.091201794898      -12.964401396065       -3.354420256655
W       -28.227602005941       -7.225896702934       -2.102040154077
W       -25.091201782375        2.571831377906      -10.050360728316
W       -28.227601893037       -3.106111152404       -8.892540656659
W       -25.091201788642       -1.474753707554       -3.354420256655
W       -28.227601999685        4.263750985576       -2.102040154077
W       -25.091201776119       14.061479066417      -10.050360728316
W       -28.227601886781        8.383536536106       -8.892540656659
W       -25.091201782386       10.014893980956       -3.354420256655
W       -28.227601993429       15.753398674087       -2.102040154077
W       -25.091201769863       25.551126754927      -10.050360728316
W       -28.227601880524       19.873184224616       -8.892540656659
W       -25.091201776129       21.504541669467       -3.354420256655
W       -28.227601987173       27.243046362597       -2.102040154077
W       -25.091201763606       37.040774443437      -10.050360728316
W       -28.227601874268       31.362831913127       -8.892540656659
W       -25.091201769873       32.994189357977       -3.354420256655
W       -28.227601980917       38.732694051107       -2.102040154077
W       -25.091201757350       48.530422131948      -10.050360728316
W       -28.227602031105       42.852479601637       -8.892540656659
W       -25.091201763617       44.483837046487       -3.354420256655
W       -28.227601974660       50.222341739618       -2.102040154077
W       -25.091201751094       60.020069820458      -10.050360728316
W       -28.227602024849       54.342127290147       -8.892540656659
W       -25.091201757361       55.973484734998       -3.354420256655
W       -28.227601968404       61.711989428128       -2.102040154077
W       -25.091201744838       71.509717508969      -10.050360728316
W       -28.227602018593       65.831774978658       -8.892540656659
W       -25.091201751105       67.463132423508       -3.354420256655
W       -28.227601962148       73.201637116638       -2.102040154077
W       -25.091201738582       82.999365197479      -10.050360728316
W       -28.227602012336       77.321422667168       -8.892540656659
W       -25.091201744849       78.952780112018       -3.354420256655
W       -28.227601955892       84.691284805149       -2.102040154077
W       -25.091201732326       94.489012885989      -10.050360728316
W       -28.227602006080       88.811070355678       -8.892540656659
W       -25.091201738592       90.442427800529       -3.354420256655
W       -28.227601949636       96.180932493659       -2.102040154077
W       -25.091201726069      105.978660574500      -10.050360728316
W       -28.227601999824      100.300718044189       -8.892540656659
W       -25.091201732336      101.932075489039       -3.354420256655
W       -28.227601943379      107.670580182169       -2.102040154077
W       -25.091201719813      117.468308263010      -10.050360728316
W       -28.227601993568      111.790365732699       -8.892540656659
W       -25.091201726080      113.421723177549       -3.354420256655
W       -28.227601937123      119.160227870680       -2.102040154077
W       -25.091201713557      128.957955951520      -10.050360728316
W       -28.227601987312      123.280013421210       -8.892540656659
W       -25.091201719824      124.911370866060       -3.354420256655
W       -28.227601930867      130.649875559190       -2.102040154077
W       -25.091201707301      140.447603640031      -10.050360728316
W       -28.227601981056      134.769661109720       -8.892540656659
W       -25.091201713568      136.401018554570       -3.354420256655
W       -28.227601924611      142.139523247700       -2.102040154077
W       -25.091201701045      151.937251328541      -10.050360728316
W       -28.227601974799      146.259308798230       -8.892540656659
W       -25.091201707312      147.890666243080       -3.354420256655
W       -28.227601918355      153.629170936211       -2.102040154077
W       -25.091201694789      163.426899017051      -10.050360728316
W       -28.227601968543      157.748956486741       -8.892540656659
W       -25.091201701055      159.380313931591       -3.354420256655
W       -28.227601912099      165.118818624721       -2.102040154077
W       -25.091201688532      174.916546705562      -10.050360728316
W       -28.227601962287      169.238604175251       -8.892540656659
W       -25.091201694799      170.869961620101       -3.354420256655
W       -28.227601905842      176.608466313232       -2.102040154077
W       -25.091201682276      186.406194394072      -10.050360728316
W       -28.227601956031      180.728251863761       -8.892540656659
W       -25.091201688543      182.359609308611       -3.354420256655
W       -28.227601899586      188.098114001742       -2.102040154077
W       -25.091201676020      197.895842082582      -10.050360728316
W       -28.227601949775      192.217899552272       -8.892540656659
W       -25.091201682287      193.849256997122       -3.354420256655
W       -28.227601893330      199.587761690252       -2.102040154077
W       -25.091201669764      209.385489771093      -10.050360728316
W       -28.227601943519      203.707547240782       -8.892540656659
W       -25.091201676031      205.338904685632       -3.354420256655
W       -28.227601887074      211.077409378763       -2.102040154077
W       -18.818401378824     -204.241827440397      -10.050360728316
W       -21.954801489486     -209.919769970708       -8.892540656659
W       -18.818401385091     -208.288412525858       -3.354420256655
W       -21.954801596134     -202.549907832727       -2.102040154077
W       -18.818401372568     -192.752179751887      -10.050360728316
W       -21.954801483230     -198.430122282197       -8.892540656659
W       -18.818401378835     -196.798764837347       -3.354420256655
W       -21.954801589878     -191.060260144217       -2.102040154077
W       -18.818401366312     -181.262532063376      -10.050360728316
W       -21.954801476974     -186.940474593687       -8.892540656659
W       -18.818401366306     -185.309116723720       -3.354420256655
W       -21.954801583622     -179.570612455706       -2.102040154077
W       -18.818401360056     -169.772884374866      -10.050360728316
W       -21.954801470717     -175.450826905177       -8.892540656659
W       -18.818401360050     -173.819469035209       -3.354420256655
W       -21.954801577366     -168.080964767196       -2.102040154077
W       -18.818401353799     -158.283236686355      -10.050360728316
W       -21.954801464461     -163.961179216666       -8.892540656659
W       -18.818401353794     -162.329821346699       -3.354420256655
W       -21.954801571110     -156.591317078686       -2.102040154077
W       -18.818401347543     -146.793588997845      -10.050360728316
W       -21.954801458205     -152.471531528156       -8.892540656659
W       -18.818401347537     -150.840173658189       -3.354420256655
W       -21.954801564853     -145.101669390175       -2.102040154077
W       -18.818401341287     -135.303941309335      -10.050360728316
W       -21.954801451949     -140.981883839646       -8.892540656659
W       -18.818401341281     -139.350525969678       -3.354420256655
W       -21.954801558597     -133.612021701665       -2.102040154077
W       -18.818401335031     -123.814293620824      -10.050360728316
W       -21.954801445693     -129.492236151135       -8.892540656659
W       -18.818401335025     -127.860878281168       -3.354420256655
W       -21.954801552341     -122.122374013155       -2.102040154077
W       -18.818401328775     -112.324645932314      -10.050360728316
W       -21.954801602529     -118.002588462625       -8.892540656659
W       -18.818401328769     -116.371230592658       -3.354420256655
W       -21.954801546085     -110.632726324644       -2.102040154077
W       -18.818401322519     -100.834998243804      -10.050360728316
W       -21.954801596273     -106.512940774114       -8.892540656659
W       -18.818401322513     -104.881582904147       -3.354420256655
W       -21.954801539829      -99.143078636134       -2.102040154077
W       -18.818401316262      -89.345350555293      -10.050360728316
W       -21.954801590017      -95.023293085604       -8.892540656659
W       -18.818401316257      -93.391935215637       -3.354420256655
W       -21.954801533573      -87.653430947624       -2.102040154077
W       -18.818401303733      -77.855702441666      -10.050360728316
W       -21.954801583761      -83.533645397094       -8.892540656659
W       -18.818401310000      -81.902287527127       -3.354420256655
W       -21.954801527316      -76.163783259113       -2.102040154077
W       -18.818401297477      -66.366054753156      -10.050360728316
W       -21.954801577505      -72.043997708583       -8.892540656659
W       -18.818401303744      -70.412639838616       -3.354420256655
W       -21.954801521060      -64.674135570603       -2.102040154077
W       -18.818401291221      -54.876407064645      -10.050360728316
W       -21.954801571249      -60.554350020073       -8.892540656659
W       -18.818401297488      -58.922992150106       -3.354420256655
W       -21.954801514804      -53.184487882092       -2.102040154077
W       -18.818401284965      -43.386759376135      -10.050360728316
W       -21.954801564992      -49.064702331563       -8.892540656659
W       -18.818401291232      -47.433344461596       -3.354420256655
W       -21.954801508548      -41.694840193582       -2.102040154077
W       -18.818401278709      -31.897111687625      -10.050360728316
W       -21.954801558736      -37.575054643052       -8.892540656659
W       -18.818401284976      -35.943696773085       -3.354420256655
W       -21.954801496019      -30.205192079955       -2.102040154077
W       -18.818401272453      -20.407463999114      -10.050360728316
W       -21.954801552480      -26.085406954542       -8.892540656659
W       -18.818401278720      -24.454049084575       -3.354420256655
W       -21.954801489763      -18.715544391444       -2.102040154077
W       -18.818401266196       -8.917816310604      -10.050360728316
W       -21.954801546224      -14.595759266032       -8.892540656659
W       -18.818401272463      -12.964401396065       -3.354420256655
W       -21.954801483507       -7.225896702934       -2.102040154077
W       -18.818401259940        2.571831377906      -10.050360728316
W       -21.954801533695       -3.106111152404       -8.892540656659
W       -18.818401266207       -1.474753707554       -3.354420256655
W       -21.954801477250        4.263750985576       -2.102040154077
W       -18.818401253684       14.061479066417      -10.050360728316
W       -21.954801527439        8.383536536106       -8.892540656659
W       -18.818401259951       10.014893980956       -3.354420256655
W       -21.954801470994       15.753398674087       -2.102040154077
W       -18.818401247428       25.551126754927      -10.050360728316
W       -21.954801521183       19.873184224616       -8.892540656659
W       -18.818401253695       21.504541669467       -3.354420256655
W       -21.954801464738       27.243046362597       -2.102040154077
W       -18.818401241172       37.040774443437      -10.050360728316
W       -21.954801514926       31.362831913127       -8.892540656659
W       -18.818401247439       32.994189357977       -3.354420256655
W       -21.954801458482       38.732694051107       -2.102040154077
W       -18.818401234916       48.530422131948      -10.050360728316
W       -21.954801508670       42.852479601637       -8.892540656659
W       -18.818401241183       44.483837046487       -3.354420256655
W       -21.954801452226       50.222341739618       -2.102040154077
W       -18.818401228659       60.020069820458      -10.050360728316
W       -21.954801502414       54.342127290147       -8.892540656659
W       -18.818401234926       55.973484734998       -3.354420256655
W       -21.954801445970       61.711989428128       -2.102040154077
W       -18.818401222403       71.509717508969      -10.050360728316
W       -21.954801496158       65.831774978658       -8.892540656659
W       -18.818401228670       67.463132423508       -3.354420256655
W       -21.954801439713       73.201637116638       -2.102040154077
W       -18.818401379240       82.999365197479      -10.050360728316
W       -21.954801489902       77.321422667168       -8.892540656659
W       -18.818401385507       78.952780112018       -3.354420256655
W       -21.954801596550       84.691284805149       -2.102040154077
W       -18.818401372984       94.489012885989      -10.050360728316
W       -21.954801483646       88.811070355678       -8.892540656659
W       -18.818401379251       90.442427800529       -3.354420256655
W       -21.954801590294       96.180932493659       -2.102040154077
W       -18.818401366728      105.978660574500      -10.050360728316
W       -21.954801477389      100.300718044189       -8.892540656659
W       -18.818401372995      101.932075489039       -3.354420256655
W       -21.954801584038      107.670580182169       -2.102040154077
W       -18.818401360471      117.468308263010      -10.050360728316
W       -21.954801471133      111.790365732699       -8.892540656659
W       -18.818401366738      113.421723177549       -3.354420256655
W       -21.954801577782      119.160227870680       -2.102040154077
W       -18.818401354215      128.957955951520      -10.050360728316
W       -21.954801464877      123.280013421210       -8.892540656659
W       -18.818401360482      124.911370866060       -3.354420256655
W       -21.954801571525      130.649875559190       -2.102040154077
W       -18.818401347959      140.447603640031      -10.050360728316
W       -21.954801458621      134.769661109720       -8.892540656659
W       -18.818401354226      136.401018554570       -3.354420256655
W       -21.954801565269      142.139523247700       -2.102040154077
W       -18.818401341703      151.937251328541      -10.050360728316
W       -21.954801452365      146.259308798230       -8.892540656659
W       -18.818401347970      147.890666243080       -3.354420256655
W       -21.954801559013      153.629170936211       -2.102040154077
W       -18.818401335447      163.426899017051      -10.050360728316
W       -21.954801446109      157.748956486741       -8.892540656659
W       -18.818401341714      159.380313931591       -3.354420256655
W       -21.954801552757      165.118818624721       -2.102040154077
W       -18.818401329191      174.916546705562      -10.050360728316
W       -21.954801439852      169.238604175251       -8.892540656659
W       -18.818401335458      170.869961620101       -3.354420256655
W       -21.954801546501      176.608466313232       -2.102040154077
W       -18.818401322934      186.406194394072      -10.050360728316
W       -21.954801596689      180.728251863761       -8.892540656659
W       -18.818401329201      182.359609308611       -3.354420256655
W       -21.954801540245      188.098114001742       -2.102040154077
W       -18.818401316678      197.895842082582      -10.050360728316
W       -21.954801590433      192.217899552272       -8.892540656659
W       -18.818401322945      193.849256997122       -3.354420256655
W       -21.954801533988      199.587761690252       -2.102040154077
W       -18.818401310422      209.385489771093      -10.050360728316
W       -21.954801584177      203.707547240782       -8.892540656659
W       -18.818401316689      205.338904685632       -3.354420256655
W       -21.954801527732      211.077409378763       -2.102040154077
W       -12.545600856390     -204.241827440397      -10.050360728316
W       -15.682001130144     -209.919769970708       -8.892540656659
W       -12.545600862656     -208.288412525858       -3.354420256655
W       -15.682001073700     -202.549907832727       -2.102040154077
W       -12.545600850133     -192.752179751887      -10.050360728316
W       -15.682001123888     -198.430122282197       -8.892540656659
W       -12.545600856400     -196.798764837347       -3.354420256655
W       -15.682001067443     -191.060260144217       -2.102040154077
W       -12.545600843877     -181.262532063376      -10.050360728316
W       -15.682001117632     -186.940474593687       -8.892540656659
W       -12.545600843871     -185.309116723720       -3.354420256655
W       -15.682001061187     -179.570612455706       -2.102040154077
W       -12.545600837621     -169.772884374866      -10.050360728316
W       -15.682001111376     -175.450826905177       -8.892540656659
W       -12.545600837615     -173.819469035209       -3.354420256655
W       -15.682001054931     -168.080964767196       -2.102040154077
W       -12.545600831365     -158.283236686355      -10.050360728316
W       -15.682001105120     -163.961179216666       -8.892540656659
W       -12.545600831359     -162.329821346699       -3.354420256655
W       -15.682001048675     -156.591317078686       -2.102040154077
W       -12.545600825109     -146.793588997845      -10.050360728316
W       -15.682001098863     -152.471531528156       -8.892540656659
W       -12.545600825103     -150.840173658189       -3.354420256655
W       -15.682001042419     -145.101669390175       -2.102040154077
W       -12.545600818853     -135.303941309335      -10.050360728316
W       -15.682001092607     -140.981883839646       -8.892540656659
W       -12.545600818847     -139.350525969678       -3.354420256655
W       -15.682001036163     -133.612021701665       -2.102040154077
W       -12.545600812596     -123.814293620824      -10.050360728316
W       -15.682001086351     -129.492236151135       -8.892540656659
W       -12.545600812590     -127.860878281168       -3.354420256655
W       -15.682001029906     -122.122374013155       -2.102040154077
W       -12.545600806340     -112.324645932314      -10.050360728316
W       -15.682001080095     -118.002588462625       -8.892540656659
W       -12.545600806334     -116.371230592658       -3.354420256655
W       -15.682001023650     -110.632726324644       -2.102040154077
W       -12.545600800084     -100.834998243804      -10.050360728316
W       -15.682001073839     -106.512940774114       -8.892540656659
W       -12.545600800078     -104.881582904147       -3.354420256655
W       -15.682001017394      -99.143078636134       -2.102040154077
W       -12.545600793828      -89.345350555293      -10.050360728316
W       -15.682001067583      -95.023293085604       -8.892540656659
W       -12.545600793822      -93.391935215637       -3.354420256655
W       -15.682001011138      -87.653430947624       -2.102040154077
W       -12.545600944392      -77.855702441666      -10.050360728316
W       -15.682001061326      -83.533645397094       -8.892540656659
W       -12.545600787566      -81.902287527127       -3.354420256655
W       -15.682001167975      -76.163783259113       -2.102040154077
W       -12.545600938136      -66.366054753156      -10.050360728316
W       -15.682001055070      -72.043997708583       -8.892540656659
W       -12.545600944402      -70.412639838616       -3.354420256655
W       -15.682001161718      -64.674135570603       -2.102040154077
W       -12.545600931879      -54.876407064645      -10.050360728316
W       -15.682001048814      -60.554350020073       -8.892540656659
W       -12.545600938146      -58.922992150106       -3.354420256655
W       -15.682001155462      -53.184487882092       -2.102040154077
W       -12.545600925623      -43.386759376135      -10.050360728316
W       -15.682001042558      -49.064702331563       -8.892540656659
W       -12.545600931890      -47.433344461596       -3.354420256655
W       -15.682001149206      -41.694840193582       -2.102040154077
W       -12.545600919367      -31.897111687625      -10.050360728316
W       -15.682001036302      -37.575054643052       -8.892540656659
W       -12.545600925634      -35.943696773085       -3.354420256655
W       -15.682001136677      -30.205192079955       -2.102040154077
W       -12.545600913111      -20.407463999114      -10.050360728316
W       -15.682001030045      -26.085406954542       -8.892540656659
W       -12.545600919378      -24.454049084575       -3.354420256655
W       -15.682001130421      -18.715544391444       -2.102040154077
W       -12.545600906855       -8.917816310604      -10.050360728316
W       -15.682001023789      -14.595759266032       -8.892540656659
W       -12.545600913122      -12.964401396065       -3.354420256655
W       -15.682001124165       -7.225896702934       -2.102040154077
W       -12.545600900599        2.571831377906      -10.050360728316
W       -15.682001011260       -3.106111152404       -8.892540656659
W       -12.545600906865       -1.474753707554       -3.354420256655
W       -15.682001117909        4.263750985576       -2.102040154077
W       -12.545600894342       14.061479066417      -10.050360728316
W       -15.682001005004        8.383536536106       -8.892540656659
W       -12.545600900609       10.014893980956       -3.354420256655
W       -15.682001111652       15.753398674087       -2.102040154077
W       -12.545600888086       25.551126754927      -10.050360728316
W       -15.682001161841       19.873184224616       -8.892540656659
W       -12.545600894353       21.504541669467       -3.354420256655
W       -15.682001105396       27.243046362597       -2.102040154077
W       -12.545600881830       37.040774443437      -10.050360728316
W       -15.682001155585       31.362831913127       -8.892540656659
W       -12.545600888097       32.994189357977       -3.354420256655
W       -15.682001099140       38.732694051107       -2.102040154077
W       -12.545600875574       48.530422131948      -10.050360728316
W       -15.682001149328       42.852479601637       -8.892540656659
W       -12.545600881841       44.483837046487       -3.354420256655
W       -15.682001092884       50.222341739618       -2.102040154077
W       -12.545600869318       60.020069820458      -10.050360728316
W       -15.682001143072       54.342127290147       -8.892540656659
W       -12.545600875585       55.973484734998       -3.354420256655
W       -15.682001086628       61.711989428128       -2.102040154077
W       -12.545600863061       71.509717508969      -10.050360728316
W       -15.682001136816       65.831774978658       -8.892540656659
W       -12.545600869328       67.463132423508       -3.354420256655
W       -15.682001080372       73.201637116638       -2.102040154077
W       -12.545600856805       82.999365197479      -10.050360728316
W       -15.682001130560       77.321422667168       -8.892540656659
W       -12.545600863072       78.952780112018       -3.354420256655
W       -15.682001074115       84.691284805149       -2.102040154077
W       -12.545600850549       94.489012885989      -10.050360728316
W       -15.682001124304       88.811070355678       -8.892540656659
W       -12.545600856816       90.442427800529       -3.354420256655
W       -15.682001067859       96.180932493659       -2.102040154077
W       -12.545600844293      105.978660574500      -10.050360728316
W       -15.682001118048      100.300718044189       -8.892540656659
W       -12.545600850560      101.932075489039       -3.354420256655
W       -15.682001061603      107.670580182169       -2.102040154077
W       -12.545600838037      117.468308263010      -10.050360728316
W       -15.682001111791      111.790365732699       -8.892540656659
W       -12.545600844304      113.421723177549       -3.354420256655
W       -15.682001055347      119.160227870680       -2.102040154077
W       -12.545600831781      128.957955951520      -10.050360728316
W       -15.682001105535      123.280013421210       -8.892540656659
W       -12.545600838048      124.911370866060       -3.354420256655
W       -15.682001049091      130.649875559190       -2.102040154077
W       -12.545600825524      140.447603640031      -10.050360728316
W       -15.682001099279      134.769661109720       -8.892540656659
W       -12.545600831791      136.401018554570       -3.354420256655
W       -15.682001042835      142.139523247700       -2.102040154077
W       -12.545600819268      151.937251328541      -10.050360728316
W       -15.682001093023      146.259308798230       -8.892540656659
W       -12.545600825535      147.890666243080       -3.354420256655
W       -15.682001036578      153.629170936211       -2.102040154077
W       -12.545600813012      163.426899017051      -10.050360728316
W       -15.682001086767      157.748956486741       -8.892540656659
W       -12.545600819279      159.380313931591       -3.354420256655
W       -15.682001030322      165.118818624721       -2.102040154077
W       -12.545600806756      174.916546705562      -10.050360728316
W       -15.682001080511      169.238604175251       -8.892540656659
W       -12.545600813023      170.869961620101       -3.354420256655
W       -15.682001024066      176.608466313232       -2.102040154077
W       -12.545600800500      186.406194394072      -10.050360728316
W       -15.682001074254      180.728251863761       -8.892540656659
W       -12.545600806767      182.359609308611       -3.354420256655
W       -15.682001017810      188.098114001742       -2.102040154077
W       -12.545600794244      197.895842082582      -10.050360728316
W       -15.682001067998      192.217899552272       -8.892540656659
W       -12.545600800511      193.849256997122       -3.354420256655
W       -15.682001011554      199.587761690252       -2.102040154077
W       -12.545600951080      209.385489771093      -10.050360728316
W       -15.682001061742      203.707547240782       -8.892540656659
W       -12.545600794254      205.338904685632       -3.354420256655
W       -15.682001168390      211.077409378763       -2.102040154077
W        -6.272800497048     -204.241827440397      -10.050360728316
W        -9.409200607710     -209.919769970708       -8.892540656659
W        -6.272800503315     -208.288412525858       -3.354420256655
W        -9.409200714358     -202.549907832727       -2.102040154077
W        -6.272800490792     -192.752179751887      -10.050360728316
W        -9.409200601453     -198.430122282197       -8.892540656659
W        -6.272800497059     -196.798764837347       -3.354420256655
W        -9.409200708102     -191.060260144217       -2.102040154077
W        -6.272800484535     -181.262532063376      -10.050360728316
W        -9.409200595197     -186.940474593687       -8.892540656659
W        -6.272800484530     -185.309116723720       -3.354420256655
W        -9.409200701846     -179.570612455706       -2.102040154077
W        -6.272800478279     -169.772884374866      -10.050360728316
W        -9.409200588941     -175.450826905177       -8.892540656659
W        -6.272800478273     -173.819469035209       -3.354420256655
W        -9.409200695589     -168.080964767196       -2.102040154077
W        -6.272800472023     -158.283236686355      -10.050360728316
W        -9.409200582685     -163.961179216666       -8.892540656659
W        -6.272800472017     -162.329821346699       -3.354420256655
W        -9.409200689333     -156.591317078686       -2.102040154077
W        -6.272800465767     -146.793588997845      -10.050360728316
W        -9.409200576429     -152.471531528156       -8.892540656659
W        -6.272800465761     -150.840173658189       -3.354420256655
W        -9.409200683077     -145.101669390175       -2.102040154077
W        -6.272800459511     -135.303941309335      -10.050360728316
W        -9.409200733265     -140.981883839646       -8.892540656659
W        -6.272800459505     -139.350525969678       -3.354420256655
W        -9.409200676821     -133.612021701665       -2.102040154077
W        -6.272800453255     -123.814293620824      -10.050360728316
W        -9.409200727009     -129.492236151135       -8.892540656659
W        -6.272800453249     -127.860878281168       -3.354420256655
W        -9.409200670565     -122.122374013155       -2.102040154077
W        -6.272800446998     -112.324645932314      -10.050360728316
W        -9.409200720753     -118.002588462625       -8.892540656659
W        -6.272800446993     -116.371230592658       -3.354420256655
W        -9.409200664309     -110.632726324644       -2.102040154077
W        -6.272800440742     -100.834998243804      -10.050360728316
W        -9.409200714497     -106.512940774114       -8.892540656659
W        -6.272800440736     -104.881582904147       -3.354420256655
W        -9.409200658052      -99.143078636134       -2.102040154077
W        -6.272800434486      -89.345350555293      -10.050360728316
W        -9.409200708241      -95.023293085604       -8.892540656659
W        -6.272800434480      -93.391935215637       -3.354420256655
W        -9.409200651796      -87.653430947624       -2.102040154077
W        -6.272800421957      -77.855702441666      -10.050360728316
W        -9.409200701985      -83.533645397094       -8.892540656659
W        -6.272800428224      -81.902287527127       -3.354420256655
W        -9.409200645540      -76.163783259113       -2.102040154077
W        -6.272800415701      -66.366054753156      -10.050360728316
W        -9.409200695728      -72.043997708583       -8.892540656659
W        -6.272800421968      -70.412639838616       -3.354420256655
W        -9.409200639284      -64.674135570603       -2.102040154077
W        -6.272800409445      -54.876407064645      -10.050360728316
W        -9.409200689472      -60.554350020073       -8.892540656659
W        -6.272800415712      -58.922992150106       -3.354420256655
W        -9.409200633028      -53.184487882092       -2.102040154077
W        -6.272800403189      -43.386759376135      -10.050360728316
W        -9.409200683216      -49.064702331563       -8.892540656659
W        -6.272800409456      -47.433344461596       -3.354420256655
W        -9.409200626772      -41.694840193582       -2.102040154077
W        -6.272800396932      -31.897111687625      -10.050360728316
W        -9.409200676960      -37.575054643052       -8.892540656659
W        -6.272800403199      -35.943696773085       -3.354420256655
W        -9.409200614243      -30.205192079955       -2.102040154077
W        -6.272800390676      -20.407463999114      -10.050360728316
W        -9.409200670704      -26.085406954542       -8.892540656659
W        -6.272800396943      -24.454049084575       -3.354420256655
W        -9.409200607986      -18.715544391444       -2.102040154077
W        -6.272800384420       -8.917816310604      -10.050360728316
W        -9.409200664448      -14.595759266032       -8.892540656659
W        -6.272800390687      -12.964401396065       -3.354420256655
W        -9.409200601730       -7.225896702934       -2.102040154077
W        -6.272800378164        2.571831377906      -10.050360728316
W        -9.409200651919       -3.106111152404       -8.892540656659
W        -6.272800384431       -1.474753707554       -3.354420256655
W        -9.409200595474        4.263750985576       -2.102040154077
W        -6.272800371908       14.061479066417      -10.050360728316
W        -9.409200645662        8.383536536106       -8.892540656659
W        -6.272800378175       10.014893980956       -3.354420256655
W        -9.409200589218       15.753398674087       -2.102040154077
W        -6.272800365652       25.551126754927      -10.050360728316
W        -9.409200639406       19.873184224616       -8.892540656659
W        -6.272800371919       21.504541669467       -3.354420256655
W        -9.409200582962       27.243046362597       -2.102040154077
W        -6.272800359395       37.040774443437      -10.050360728316
W        -9.409200633150       31.362831913127       -8.892540656659
W        -6.272800365662       32.994189357977       -3.354420256655
W        -9.409200576706       38.732694051107       -2.102040154077
W        -6.272800353139       48.530422131948      -10.050360728316
W        -9.409200626894       42.852479601637       -8.892540656659
W        -6.272800359406       44.483837046487       -3.354420256655
W        -9.409200570449       50.222341739618       -2.102040154077
W        -6.272800509976       60.020069820458      -10.050360728316
W        -9.409200620638       54.342127290147       -8.892540656659
W        -6.272800516243       55.973484734998       -3.354420256655
W        -9.409200727286       61.711989428128       -2.102040154077
W        -6.272800503720       71.509717508969      -10.050360728316
W        -9.409200614382       65.831774978658       -8.892540656659
W        -6.272800509987       67.463132423508       -3.354420256655
W        -9.409200721030       73.201637116638       -2.102040154077
W        -6.272800497464       82.999365197479      -10.050360728316
W        -9.409200608125       77.321422667168       -8.892540656659
W        -6.272800503730       78.952780112018       -3.354420256655
W        -9.409200714774       84.691284805149       -2.102040154077
W        -6.272800491207       94.489012885989      -10.050360728316
W        -9.409200601869       88.811070355678       -8.892540656659
W        -6.272800497474       90.442427800529       -3.354420256655
W        -9.409200708518       96.180932493659       -2.102040154077
W        -6.272800484951      105.978660574500      -10.050360728316
W        -9.409200595613      100.300718044189       -8.892540656659
W        -6.272800491218      101.932075489039       -3.354420256655
W        -9.409200702261      107.670580182169       -2.102040154077
W        -6.272800478695      117.468308263010      -10.050360728316
W        -9.409200589357      111.790365732699       -8.892540656659
W        -6.272800484962      113.421723177549       -3.354420256655
W        -9.409200696005      119.160227870680       -2.102040154077
W        -6.272800472439      128.957955951520      -10.050360728316
W        -9.409200583101      123.280013421210       -8.892540656659
W        -6.272800478706      124.911370866060       -3.354420256655
W        -9.409200689749      130.649875559190       -2.102040154077
W        -6.272800466183      140.447603640031      -10.050360728316
W        -9.409200576845      134.769661109720       -8.892540656659
W        -6.272800472450      136.401018554570       -3.354420256655
W        -9.409200683493      142.139523247700       -2.102040154077
W        -6.272800459927      151.937251328541      -10.050360728316
W        -9.409200570588      146.259308798230       -8.892540656659
W        -6.272800466193      147.890666243080       -3.354420256655
W        -9.409200677237      153.629170936211       -2.102040154077
W        -6.272800453670      163.426899017051      -10.050360728316
W        -9.409200727425      157.748956486741       -8.892540656659
W        -6.272800459937      159.380313931591       -3.354420256655
W        -9.409200670980      165.118818624721       -2.102040154077
W        -6.272800447414      174.916546705562      -10.050360728316
W        -9.409200721169      169.238604175251       -8.892540656659
W        -6.272800453681      170.869961620101       -3.354420256655
W        -9.409200664724      176.608466313232       -2.102040154077
W        -6.272800441158      186.406194394072      -10.050360728316
W        -9.409200714913      180.728251863761       -8.892540656659
W        -6.272800447425      182.359609308611       -3.354420256655
W        -9.409200658468      188.098114001742       -2.102040154077
W        -6.272800434902      197.895842082582      -10.050360728316
W        -9.409200708657      192.217899552272       -8.892540656659
W        -6.272800441169      193.849256997122       -3.354420256655
W        -9.409200652212      199.587761690252       -2.102040154077
W        -6.272800428646      209.385489771093      -10.050360728316
W        -9.409200702400      203.707547240782       -8.892540656659
W        -6.272800434913      205.338904685632       -3.354420256655
W        -9.409200645956      211.077409378763       -2.102040154077
W         0.000000025387     -204.241827440397      -10.050360728316
W        -3.136400248368     -209.919769970708       -8.892540656659
W         0.000000019120     -208.288412525858       -3.354420256655
W        -3.136400191923     -202.549907832727       -2.102040154077
W         0.000000031643     -192.752179751887      -10.050360728316
W        -3.136400242112     -198.430122282197       -8.892540656659
W         0.000000025376     -196.798764837347       -3.354420256655
W        -3.136400185667     -191.060260144217       -2.102040154077
W         0.000000037899     -181.262532063376      -10.050360728316
W        -3.136400235855     -186.940474593687       -8.892540656659
W         0.000000037905     -185.309116723720       -3.354420256655
W        -3.136400179411     -179.570612455706       -2.102040154077
W         0.000000044155     -169.772884374866      -10.050360728316
W        -3.136400229599     -175.450826905177       -8.892540656659
W         0.000000044161     -173.819469035209       -3.354420256655
W        -3.136400173155     -168.080964767196       -2.102040154077
W         0.000000050412     -158.283236686355      -10.050360728316
W        -3.136400223343     -163.961179216666       -8.892540656659
W         0.000000050417     -162.329821346699       -3.354420256655
W        -3.136400166899     -156.591317078686       -2.102040154077
W         0.000000056668     -146.793588997845      -10.050360728316
W        -3.136400217087     -152.471531528156       -8.892540656659
W         0.000000056674     -150.840173658189       -3.354420256655
W        -3.136400160642     -145.101669390175       -2.102040154077
W         0.000000062924     -135.303941309335      -10.050360728316
W        -3.136400210831     -140.981883839646       -8.892540656659
W         0.000000062930     -139.350525969678       -3.354420256655
W        -3.136400154386     -133.612021701665       -2.102040154077
W         0.000000069180     -123.814293620824      -10.050360728316
W        -3.136400204575     -129.492236151135       -8.892540656659
W         0.000000069186     -127.860878281168       -3.354420256655
W        -3.136400148130     -122.122374013155       -2.102040154077
W         0.000000075436     -112.324645932314      -10.050360728316
W        -3.136400198318     -118.002588462625       -8.892540656659
W         0.000000075442     -116.371230592658       -3.354420256655
W        -3.136400141874     -110.632726324644       -2.102040154077
W        -0.000000081400     -100.834998243804      -10.050360728316
W        -3.136400192062     -106.512940774114       -8.892540656659
W         0.000000081698     -104.881582904147       -3.354420256655
W        -3.136400298711      -99.143078636134       -2.102040154077
W        -0.000000075144      -89.345350555293      -10.050360728316
W        -3.136400185806      -95.023293085604       -8.892540656659
W        -0.000000075138      -93.391935215637       -3.354420256655
W        -3.136400292454      -87.653430947624       -2.102040154077
W        -0.000000062615      -77.855702441666      -10.050360728316
W        -3.136400179550      -83.533645397094       -8.892540656659
W        -0.000000068882      -81.902287527127       -3.354420256655
W        -3.136400286198      -76.163783259113       -2.102040154077
W        -0.000000056359      -66.366054753156      -10.050360728316
W        -3.136400173294      -72.043997708583       -8.892540656659
W        -0.000000062626      -70.412639838616       -3.354420256655
W        -3.136400279942      -64.674135570603       -2.102040154077
W        -0.000000050103      -54.876407064645      -10.050360728316
W        -3.136400167038      -60.554350020073       -8.892540656659
W        -0.000000056370      -58.922992150106       -3.354420256655
W        -3.136400273686      -53.184487882092       -2.102040154077
W        -0.000000043847      -43.386759376135      -10.050360728316
W        -3.136400160781      -49.064702331563       -8.892540656659
W        -0.000000050114      -47.433344461596       -3.354420256655
W        -3.136400267430      -41.694840193582       -2.102040154077
W        -0.000000037591      -31.897111687625      -10.050360728316
W        -3.136400154525      -37.575054643052       -8.892540656659
W        -0.000000043858      -35.943696773085       -3.354420256655
W        -3.136400254901      -30.205192079955       -2.102040154077
W        -0.000000031334      -20.407463999114      -10.050360728316
W        -3.136400148269      -26.085406954542       -8.892540656659
W        -0.000000037601      -24.454049084575       -3.354420256655
W        -3.136400248645      -18.715544391444       -2.102040154077
W        -0.000000025078       -8.917816310604      -10.050360728316
W        -3.136400142013      -14.595759266032       -8.892540656659
W        -0.000000031345      -12.964401396065       -3.354420256655
W        -3.136400242388       -7.225896702934       -2.102040154077
W        -0.000000018822        2.571831377906      -10.050360728316
W        -3.136400292577       -3.106111152404       -8.892540656659
W        -0.000000025089       -1.474753707554       -3.354420256655
W        -3.136400236132        4.263750985576       -2.102040154077
W        -0.000000012566       14.061479066417      -10.050360728316
W        -3.136400286321        8.383536536106       -8.892540656659
W        -0.000000018833       10.014893980956       -3.354420256655
W        -3.136400229876       15.753398674087       -2.102040154077
W        -0.000000006310       25.551126754927      -10.050360728316
W        -3.136400280064       19.873184224616       -8.892540656659
W        -0.000000012577       21.504541669467       -3.354420256655
W        -3.136400223620       27.243046362597       -2.102040154077
W        -0.000000000054       37.040774443437      -10.050360728316
W        -3.136400273808       31.362831913127       -8.892540656659
W        -0.000000006321       32.994189357977       -3.354420256655
W        -3.136400217364       38.732694051107       -2.102040154077
W         0.000000006203       48.530422131948      -10.050360728316
W        -3.136400267552       42.852479601637       -8.892540656659
W        -0.000000000064       44.483837046487       -3.354420256655
W        -3.136400211108       50.222341739618       -2.102040154077
W         0.000000012459       60.020069820458      -10.050360728316
W        -3.136400261296       54.342127290147       -8.892540656659
W         0.000000006192       55.973484734998       -3.354420256655
W        -3.136400204851       61.711989428128       -2.102040154077
W         0.000000018715       71.509717508969      -10.050360728316
W        -3.136400255040       65.831774978658       -8.892540656659
W         0.000000012448       67.463132423508       -3.354420256655
W        -3.136400198595       73.201637116638       -2.102040154077
W         0.000000024971       82.999365197479      -10.050360728316
W        -3.136400248784       77.321422667168       -8.892540656659
W         0.000000018704       78.952780112018       -3.354420256655
W        -3.136400192339       84.691284805149       -2.102040154077
W         0.000000031227       94.489012885989      -10.050360728316
W        -3.136400242527       88.811070355678       -8.892540656659
W         0.000000024960       90.442427800529       -3.354420256655
W        -3.136400186083       96.180932493659       -2.102040154077
W         0.000000037483      105.978660574500      -10.050360728316
W        -3.136400236271      100.300718044189       -8.892540656659
W         0.000000031216      101.932075489039       -3.354420256655
W        -3.136400179827      107.670580182169       -2.102040154077
W         0.000000043740      117.468308263010      -10.050360728316
W        -3.136400230015      111.790365732699       -8.892540656659
W         0.000000037473      113.421723177549       -3.354420256655
W        -3.136400173571      119.160227870680       -2.102040154077
W         0.000000049996      128.957955951520      -10.050360728316
W        -3.136400223759      123.280013421210       -8.892540656659
W         0.000000043729      124.911370866060       -3.354420256655
W        -3.136400167314      130.649875559190       -2.102040154077
W         0.000000056252      140.447603640031      -10.050360728316
W        -3.136400217503      134.769661109720       -8.892540656659
W         0.000000049985      136.401018554570       -3.354420256655
W        -3.136400161058      142.139523247700       -2.102040154077
W         0.000000062508      151.937251328541      -10.050360728316
W        -3.136400211247      146.259308798230       -8.892540656659
W         0.000000056241      147.890666243080       -3.354420256655
W        -3.136400154802      153.629170936211       -2.102040154077
W         0.000000068764      163.426899017051      -10.050360728316
W        -3.136400204990      157.748956486741       -8.892540656659
W         0.000000062497      159.380313931591       -3.354420256655
W        -3.136400148546      165.118818624721       -2.102040154077
W         0.000000075020      174.916546705562      -10.050360728316
W        -3.136400198734      169.238604175251       -8.892540656659
W         0.000000068753      170.869961620101       -3.354420256655
W        -3.136400142290      176.608466313232       -2.102040154077
W        -0.000000081816      186.406194394072      -10.050360728316
W        -3.136400192478      180.728251863761       -8.892540656659
W         0.000000075010      182.359609308611       -3.354420256655
W        -3.136400299126      188.098114001742       -2.102040154077
W        -0.000000075560      197.895842082582      -10.050360728316
W        -3.136400186222      192.217899552272       -8.892540656659
W        -0.000000081827      193.849256997122       -3.354420256655
W        -3.136400292870      199.587761690252       -2.102040154077
W        -0.000000069304      209.385489771093      -10.050360728316
W        -3.136400179966      203.707547240782       -8.892540656659
W        -0.000000075571      205.338904685632       -3.354420256655
W        -3.136400286614      211.077409378763       -2.102040154077
W         6.272800384729     -204.241827440397      -10.050360728316
W         3.136400274067     -209.919769970708       -8.892540656659
W         6.272800378462     -208.288412525858       -3.354420256655
W         3.136400167418     -202.549907832727       -2.102040154077
W         6.272800390985     -192.752179751887      -10.050360728316
W         3.136400280323     -198.430122282197       -8.892540656659
W         6.272800384718     -196.798764837347       -3.354420256655
W         3.136400173675     -191.060260144217       -2.102040154077
W         6.272800397241     -181.262532063376      -10.050360728316
W         3.136400286579     -186.940474593687       -8.892540656659
W         6.272800397247     -185.309116723720       -3.354420256655
W         3.136400179931     -179.570612455706       -2.102040154077
W         6.272800403497     -169.772884374866      -10.050360728316
W         3.136400292835     -175.450826905177       -8.892540656659
W         6.272800403503     -173.819469035209       -3.354420256655
W         3.136400186187     -168.080964767196       -2.102040154077
W         6.272800409753     -158.283236686355      -10.050360728316
W         3.136400135999     -163.961179216666       -8.892540656659
W         6.272800409759     -162.329821346699       -3.354420256655
W         3.136400192443     -156.591317078686       -2.102040154077
W         6.272800416009     -146.793588997845      -10.050360728316
W         3.136400142255     -152.471531528156       -8.892540656659
W         6.272800416015     -150.840173658189       -3.354420256655
W         3.136400198699     -145.101669390175       -2.102040154077
W         6.272800422266     -135.303941309335      -10.050360728316
W         3.136400148511     -140.981883839646       -8.892540656659
W         6.272800422272     -139.350525969678       -3.354420256655
W         3.136400204955     -133.612021701665       -2.102040154077
W         6.272800428522     -123.814293620824      -10.050360728316
W         3.136400154767     -129.492236151135       -8.892540656659
W         6.272800428528     -127.860878281168       -3.354420256655
W         3.136400211212     -122.122374013155       -2.102040154077
W         6.272800434778     -112.324645932314      -10.050360728316
W         3.136400161023     -118.002588462625       -8.892540656659
W         6.272800434784     -116.371230592658       -3.354420256655
W         3.136400217468     -110.632726324644       -2.102040154077
W         6.272800441034     -100.834998243804      -10.050360728316
W         3.136400167279     -106.512940774114       -8.892540656659
W         6.272800441040     -104.881582904147       -3.354420256655
W         3.136400223724      -99.143078636134       -2.102040154077
W         6.272800447290      -89.345350555293      -10.050360728316
W         3.136400173536      -95.023293085604       -8.892540656659
W         6.272800447296      -93.391935215637       -3.354420256655
W         3.136400229980      -87.653430947624       -2.102040154077
W         6.272800459819      -77.855702441666      -10.050360728316
W         3.136400179792      -83.533645397094       -8.892540656659
W         6.272800453552      -81.902287527127       -3.354420256655
W         3.136400236236      -76.163783259113       -2.102040154077
W         6.272800466075      -66.366054753156      -10.050360728316
W         3.136400186048      -72.043997708583       -8.892540656659
W         6.272800459809      -70.412639838616       -3.354420256655
W         3.136400242493      -64.674135570603       -2.102040154077
W         6.272800472332      -54.876407064645      -10.050360728316
W         3.136400192304      -60.554350020073       -8.892540656659
W         6.272800466065      -58.922992150106       -3.354420256655
W         3.136400248749      -53.184487882092       -2.102040154077
W         6.272800478588      -43.386759376135      -10.050360728316
W         3.136400198560      -49.064702331563       -8.892540656659
W         6.272800472321      -47.433344461596       -3.354420256655
W         3.136400255005      -41.694840193582       -2.102040154077
W         6.272800484844      -31.897111687625      -10.050360728316
W         3.136400204816      -37.575054643052       -8.892540656659
W         6.272800478577      -35.943696773085       -3.354420256655
W         3.136400267534      -30.205192079955       -2.102040154077
W         6.272800491100      -20.407463999114      -10.050360728316
W         3.136400211073      -26.085406954542       -8.892540656659
W         6.272800484833      -24.454049084575       -3.354420256655
W         3.136400273790      -18.715544391444       -2.102040154077
W         6.272800497356       -8.917816310604      -10.050360728316
W         3.136400217329      -14.595759266032       -8.892540656659
W         6.272800491089      -12.964401396065       -3.354420256655
W         3.136400280046       -7.225896702934       -2.102040154077
W         6.272800503612        2.571831377906      -10.050360728316
W         3.136400229858       -3.106111152404       -8.892540656659
W         6.272800497346       -1.474753707554       -3.354420256655
W         3.136400286302        4.263750985576       -2.102040154077
W         6.272800509869       14.061479066417      -10.050360728316
W         3.136400236114        8.383536536106       -8.892540656659
W         6.272800503602       10.014893980956       -3.354420256655
W         3.136400292559       15.753398674087       -2.102040154077
W         6.272800516125       25.551126754927      -10.050360728316
W         3.136400242370       19.873184224616       -8.892540656659
W         6.272800509858       21.504541669467       -3.354420256655
W         3.136400298815       27.243046362597       -2.102040154077
W         6.272800359288       37.040774443437      -10.050360728316
W         3.136400248626       31.362831913127       -8.892540656659
W         6.272800353021       32.994189357977       -3.354420256655
W         3.136400141978       38.732694051107       -2.102040154077
W         6.272800365544       48.530422131948      -10.050360728316
W         3.136400254882       42.852479601637       -8.892540656659
W         6.272800359277       44.483837046487       -3.354420256655
W         3.136400148234       50.222341739618       -2.102040154077
W         6.272800371800       60.020069820458      -10.050360728316
W         3.136400261139       54.342127290147       -8.892540656659
W         6.272800365534       55.973484734998       -3.354420256655
W         3.136400154490       61.711989428128       -2.102040154077
W         6.272800378057       71.509717508969      -10.050360728316
W         3.136400267395       65.831774978658       -8.892540656659
W         6.272800371790       67.463132423508       -3.354420256655
W         3.136400160747       73.201637116638       -2.102040154077
W         6.272800384313       82.999365197479      -10.050360728316
W         3.136400273651       77.321422667168       -8.892540656659
W         6.272800378046       78.952780112018       -3.354420256655
W         3.136400167003       84.691284805149       -2.102040154077
W         6.272800390569       94.489012885989      -10.050360728316
W         3.136400279907       88.811070355678       -8.892540656659
W         6.272800384302       90.442427800529       -3.354420256655
W         3.136400173259       96.180932493659       -2.102040154077
W         6.272800396825      105.978660574500      -10.050360728316
W         3.136400286163      100.300718044189       -8.892540656659
W         6.272800390558      101.932075489039       -3.354420256655
W         3.136400179515      107.670580182169       -2.102040154077
W         6.272800403081      117.468308263010      -10.050360728316
W         3.136400292419      111.790365732699       -8.892540656659
W         6.272800396814      113.421723177549       -3.354420256655
W         3.136400185771      119.160227870680       -2.102040154077
W         6.272800409338      128.957955951520      -10.050360728316
W         3.136400298676      123.280013421210       -8.892540656659
W         6.272800403071      124.911370866060       -3.354420256655
W         3.136400192027      130.649875559190       -2.102040154077
W         6.272800415594      140.447603640031      -10.050360728316
W         3.136400141839      134.769661109720       -8.892540656659
W         6.272800409327      136.401018554570       -3.354420256655
W         3.136400198284      142.139523247700       -2.102040154077
W         6.272800421850      151.937251328541      -10.050360728316
W         3.136400148095      146.259308798230       -8.892540656659
W         6.272800415583      147.890666243080       -3.354420256655
W         3.136400204540      153.629170936211       -2.102040154077
W         6.272800428106      163.426899017051      -10.050360728316
W         3.136400154351      157.748956486741       -8.892540656659
W         6.272800421839      159.380313931591       -3.354420256655
W         3.136400210796      165.118818624721       -2.102040154077
W         6.272800434362      174.916546705562      -10.050360728316
W         3.136400160607      169.238604175251       -8.892540656659
W         6.272800428095      170.869961620101       -3.354420256655
W         3.136400217052      176.608466313232       -2.102040154077
W         6.272800440618      186.406194394072      -10.050360728316
W         3.136400166864      180.728251863761       -8.892540656659
W         6.272800434351      182.359609308611       -3.354420256655
W         3.136400223308      188.098114001742       -2.102040154077
W         6.272800446875      197.895842082582      -10.050360728316
W         3.136400173120      192.217899552272       -8.892540656659
W         6.272800440608      193.849256997122       -3.354420256655
W         3.136400229564      199.587761690252       -2.102040154077
W         6.272800453131      209.385489771093      -10.050360728316
W         3.136400179376      203.707547240782       -8.892540656659
W         6.272800446864      205.338904685632       -3.354420256655
W         3.136400235821      211.077409378763       -2.102040154077
W        12.545600907163     -204.241827440397      -10.050360728316
W         9.409200633409     -209.919769970708       -8.892540656659
W        12.545600900896     -208.288412525858       -3.354420256655
W         9.409200689853     -202.549907832727       -2.102040154077
W        12.545600913419     -192.752179751887      -10.050360728316
W         9.409200639665     -198.430122282197       -8.892540656659
W        12.545600907152     -196.798764837347       -3.354420256655
W         9.409200696109     -191.060260144217       -2.102040154077
W        12.545600919676     -181.262532063376      -10.050360728316
W         9.409200645921     -186.940474593687       -8.892540656659
W        12.545600919681     -185.309116723720       -3.354420256655
W         9.409200702365     -179.570612455706       -2.102040154077
W        12.545600925932     -169.772884374866      -10.050360728316
W         9.409200652177     -175.450826905177       -8.892540656659
W        12.545600925938     -173.819469035209       -3.354420256655
W         9.409200708622     -168.080964767196       -2.102040154077
W        12.545600932188     -158.283236686355      -10.050360728316
W         9.409200658433     -163.961179216666       -8.892540656659
W        12.545600932194     -162.329821346699       -3.354420256655
W         9.409200714878     -156.591317078686       -2.102040154077
W        12.545600938444     -146.793588997845      -10.050360728316
W         9.409200664689     -152.471531528156       -8.892540656659
W        12.545600938450     -150.840173658189       -3.354420256655
W         9.409200721134     -145.101669390175       -2.102040154077
W        12.545600944700     -135.303941309335      -10.050360728316
W         9.409200670946     -140.981883839646       -8.892540656659
W        12.545600944706     -139.350525969678       -3.354420256655
W         9.409200727390     -133.612021701665       -2.102040154077
W        12.545600787864     -123.814293620824      -10.050360728316
W         9.409200677202     -129.492236151135       -8.892540656659
W        12.545600950962     -127.860878281168       -3.354420256655
W         9.409200570553     -122.122374013155       -2.102040154077
W        12.545600794120     -112.324645932314      -10.050360728316
W         9.409200683458     -118.002588462625       -8.892540656659
W        12.545600794126     -116.371230592658       -3.354420256655
W         9.409200576810     -110.632726324644       -2.102040154077
W        12.545600800376     -100.834998243804      -10.050360728316
W         9.409200689714     -106.512940774114       -8.892540656659
W        12.545600800382     -104.881582904147       -3.354420256655
W         9.409200583066      -99.143078636134       -2.102040154077
W        12.545600806632      -89.345350555293      -10.050360728316
W         9.409200695970      -95.023293085604       -8.892540656659
W        12.545600806638      -93.391935215637       -3.354420256655
W         9.409200589322      -87.653430947624       -2.102040154077
W        12.545600819161      -77.855702441666      -10.050360728316
W         9.409200702226      -83.533645397094       -8.892540656659
W        12.545600812894      -81.902287527127       -3.354420256655
W         9.409200595578      -76.163783259113       -2.102040154077
W        12.545600825417      -66.366054753156      -10.050360728316
W         9.409200708483      -72.043997708583       -8.892540656659
W        12.545600819150      -70.412639838616       -3.354420256655
W         9.409200601834      -64.674135570603       -2.102040154077
W        12.545600831673      -54.876407064645      -10.050360728316
W         9.409200714739      -60.554350020073       -8.892540656659
W        12.545600825406      -58.922992150106       -3.354420256655
W         9.409200608090      -53.184487882092       -2.102040154077
W        12.545600837930      -43.386759376135      -10.050360728316
W         9.409200720995      -49.064702331563       -8.892540656659
W        12.545600831663      -47.433344461596       -3.354420256655
W         9.409200614347      -41.694840193582       -2.102040154077
W        12.545600844186      -31.897111687625      -10.050360728316
W         9.409200727251      -37.575054643052       -8.892540656659
W        12.545600837919      -35.943696773085       -3.354420256655
W         9.409200626876      -30.205192079955       -2.102040154077
W        12.545600850442      -20.407463999114      -10.050360728316
W         9.409200570414      -26.085406954542       -8.892540656659
W        12.545600844175      -24.454049084575       -3.354420256655
W         9.409200633132      -18.715544391444       -2.102040154077
W        12.545600856698       -8.917816310604      -10.050360728316
W         9.409200576671      -14.595759266032       -8.892540656659
W        12.545600850431      -12.964401396065       -3.354420256655
W         9.409200639388       -7.225896702934       -2.102040154077
W        12.545600862954        2.571831377906      -10.050360728316
W         9.409200589200       -3.106111152404       -8.892540656659
W        12.545600856687       -1.474753707554       -3.354420256655
W         9.409200645644        4.263750985576       -2.102040154077
W        12.545600869210       14.061479066417      -10.050360728316
W         9.409200595456        8.383536536106       -8.892540656659
W        12.545600862943       10.014893980956       -3.354420256655
W         9.409200651900       15.753398674087       -2.102040154077
W        12.545600875467       25.551126754927      -10.050360728316
W         9.409200601712       19.873184224616       -8.892540656659
W        12.545600869200       21.504541669467       -3.354420256655
W         9.409200658156       27.243046362597       -2.102040154077
W        12.545600881723       37.040774443437      -10.050360728316
W         9.409200607968       31.362831913127       -8.892540656659
W        12.545600875456       32.994189357977       -3.354420256655
W         9.409200664413       38.732694051107       -2.102040154077
W        12.545600887979       48.530422131948      -10.050360728316
W         9.409200614224       42.852479601637       -8.892540656659
W        12.545600881712       44.483837046487       -3.354420256655
W         9.409200670669       50.222341739618       -2.102040154077
W        12.545600894235       60.020069820458      -10.050360728316
W         9.409200620480       54.342127290147       -8.892540656659
W        12.545600887968       55.973484734998       -3.354420256655
W         9.409200676925       61.711989428128       -2.102040154077
W        12.545600900491       71.509717508969      -10.050360728316
W         9.409200626737       65.831774978658       -8.892540656659
W        12.545600894224       67.463132423508       -3.354420256655
W         9.409200683181       73.201637116638       -2.102040154077
W        12.545600906747       82.999365197479      -10.050360728316
W         9.409200632993       77.321422667168       -8.892540656659
W        12.545600900480       78.952780112018       -3.354420256655
W         9.409200689437       84.691284805149       -2.102040154077
W        12.545600913004       94.489012885989      -10.050360728316
W         9.409200639249       88.811070355678       -8.892540656659
W        12.545600906737       90.442427800529       -3.354420256655
W         9.409200695693       96.180932493659       -2.102040154077
W        12.545600919260      105.978660574500      -10.050360728316
W         9.409200645505      100.300718044189       -8.892540656659
W        12.545600912993      101.932075489039       -3.354420256655
W         9.409200701950      107.670580182169       -2.102040154077
W        12.545600925516      117.468308263010      -10.050360728316
W         9.409200651761      111.790365732699       -8.892540656659
W        12.545600919249      113.421723177549       -3.354420256655
W         9.409200708206      119.160227870680       -2.102040154077
W        12.545600931772      128.957955951520      -10.050360728316
W         9.409200658017      123.280013421210       -8.892540656659
W        12.545600925505      124.911370866060       -3.354420256655
W         9.409200714462      130.649875559190       -2.102040154077
W        12.545600938028      140.447603640031      -10.050360728316
W         9.409200664274      134.769661109720       -8.892540656659
W        12.545600931761      136.401018554570       -3.354420256655
W         9.409200720718      142.139523247700       -2.102040154077
W        12.545600944284      151.937251328541      -10.050360728316
W         9.409200670530      146.259308798230       -8.892540656659
W        12.545600938017      147.890666243080       -3.354420256655
W         9.409200726974      153.629170936211       -2.102040154077
W        12.545600787448      163.426899017051      -10.050360728316
W         9.409200676786      157.748956486741       -8.892540656659
W        12.545600944274      159.380313931591       -3.354420256655
W         9.409200733230      165.118818624721       -2.102040154077
W        12.545600793704      174.916546705562      -10.050360728316
W         9.409200683042      169.238604175251       -8.892540656659
W        12.545600787437      170.869961620101       -3.354420256655
W         9.409200576394      176.608466313232       -2.102040154077
W        12.545600799960      186.406194394072      -10.050360728316
W         9.409200689298      180.728251863761       -8.892540656659
W        12.545600793693      182.359609308611       -3.354420256655
W         9.409200582650      188.098114001742       -2.102040154077
W        12.545600806216      197.895842082582      -10.050360728316
W         9.409200695554      192.217899552272       -8.892540656659
W        12.545600799949      193.849256997122       -3.354420256655
W         9.409200588906      199.587761690252       -2.102040154077
W        12.545600812472      209.385489771093      -10.050360728316
W         9.409200701811      203.707547240782       -8.892540656659
W        12.545600806206      205.338904685632       -3.354420256655
W         9.409200595162      211.077409378763       -2.102040154077
W        18.818401266505     -204.241827440397      -10.050360728316
W        15.682001155843     -209.919769970708       -8.892540656659
W        18.818401260238     -208.288412525858       -3.354420256655
W        15.682001049195     -202.549907832727       -2.102040154077
W        18.818401272761     -192.752179751887      -10.050360728316
W        15.682001162099     -198.430122282197       -8.892540656659
W        18.818401266494     -196.798764837347       -3.354420256655
W        15.682001055451     -191.060260144217       -2.102040154077
W        18.818401279017     -181.262532063376      -10.050360728316
W        15.682001005263     -186.940474593687       -8.892540656659
W        18.818401279023     -185.309116723720       -3.354420256655
W        15.682001061707     -179.570612455706       -2.102040154077
W        18.818401285274     -169.772884374866      -10.050360728316
W        15.682001011519     -175.450826905177       -8.892540656659
W        18.818401285279     -173.819469035209       -3.354420256655
W        15.682001067963     -168.080964767196       -2.102040154077
W        18.818401291530     -158.283236686355      -10.050360728316
W        15.682001017775     -163.961179216666       -8.892540656659
W        18.818401291536     -162.329821346699       -3.354420256655
W        15.682001074220     -156.591317078686       -2.102040154077
W        18.818401297786     -146.793588997845      -10.050360728316
W        15.682001024031     -152.471531528156       -8.892540656659
W        18.818401297792     -150.840173658189       -3.354420256655
W        15.682001080476     -145.101669390175       -2.102040154077
W        18.818401304042     -135.303941309335      -10.050360728316
W        15.682001030287     -140.981883839646       -8.892540656659
W        18.818401304048     -139.350525969678       -3.354420256655
W        15.682001086732     -133.612021701665       -2.102040154077
W        18.818401310298     -123.814293620824      -10.050360728316
W        15.682001036544     -129.492236151135       -8.892540656659
W        18.818401310304     -127.860878281168       -3.354420256655
W        15.682001092988     -122.122374013155       -2.102040154077
W        18.818401316554     -112.324645932314      -10.050360728316
W        15.682001042800     -118.002588462625       -8.892540656659
W        18.818401316560     -116.371230592658       -3.354420256655
W        15.682001099244     -110.632726324644       -2.102040154077
W        18.818401322811     -100.834998243804      -10.050360728316
W        15.682001049056     -106.512940774114       -8.892540656659
W        18.818401322816     -104.881582904147       -3.354420256655
W        15.682001105500      -99.143078636134       -2.102040154077
W        18.818401329067      -89.345350555293      -10.050360728316
W        15.682001055312      -95.023293085604       -8.892540656659
W        18.818401329073      -93.391935215637       -3.354420256655
W        15.682001111757      -87.653430947624       -2.102040154077
W        18.818401341596      -77.855702441666      -10.050360728316
W        15.682001061568      -83.533645397094       -8.892540656659
W        18.818401335329      -81.902287527127       -3.354420256655
W        15.682001118013      -76.163783259113       -2.102040154077
W        18.818401347852      -66.366054753156      -10.050360728316
W        15.682001067824      -72.043997708583       -8.892540656659
W        18.818401341585      -70.412639838616       -3.354420256655
W        15.682001124269      -64.674135570603       -2.102040154077
W        18.818401354108      -54.876407064645      -10.050360728316
W        15.682001074081      -60.554350020073       -8.892540656659
W        18.818401347841      -58.922992150106       -3.354420256655
W        15.682001130525      -53.184487882092       -2.102040154077
W        18.818401360364      -43.386759376135      -10.050360728316
W        15.682001080337      -49.064702331563       -8.892540656659
W        18.818401354097      -47.433344461596       -3.354420256655
W        15.682001136781      -41.694840193582       -2.102040154077
W        18.818401366620      -31.897111687625      -10.050360728316
W        15.682001086593      -37.575054643052       -8.892540656659
W        18.818401360353      -35.943696773085       -3.354420256655
W        15.682001149310      -30.205192079955       -2.102040154077
W        18.818401372876      -20.407463999114      -10.050360728316
W        15.682001092849      -26.085406954542       -8.892540656659
W        18.818401366610      -24.454049084575       -3.354420256655
W        15.682001155566      -18.715544391444       -2.102040154077
W        18.818401379133       -8.917816310604      -10.050360728316
W        15.682001099105      -14.595759266032       -8.892540656659
W        18.818401372866      -12.964401396065       -3.354420256655
W        15.682001161823       -7.225896702934       -2.102040154077
W        18.818401385389        2.571831377906      -10.050360728316
W        15.682001111634       -3.106111152404       -8.892540656659
W        18.818401379122       -1.474753707554       -3.354420256655
W        15.682001168079        4.263750985576       -2.102040154077
W        18.818401228552       14.061479066417      -10.050360728316
W        15.682001117890        8.383536536106       -8.892540656659
W        18.818401385378       10.014893980956       -3.354420256655
W        15.682001011242       15.753398674087       -2.102040154077
W        18.818401234808       25.551126754927      -10.050360728316
W        15.682001124146       19.873184224616       -8.892540656659
W        18.818401228541       21.504541669467       -3.354420256655
W        15.682001017498       27.243046362597       -2.102040154077
W        18.818401241065       37.040774443437      -10.050360728316
W        15.682001130403       31.362831913127       -8.892540656659
W        18.818401234798       32.994189357977       -3.354420256655
W        15.682001023754       38.732694051107       -2.102040154077
W        18.818401247321       48.530422131948      -10.050360728316
W        15.682001136659       42.852479601637       -8.892540656659
W        18.818401241054       44.483837046487       -3.354420256655
W        15.682001030011       50.222341739618       -2.102040154077
W        18.818401253577       60.020069820458      -10.050360728316
W        15.682001142915       54.342127290147       -8.892540656659
W        18.818401247310       55.973484734998       -3.354420256655
W        15.682001036267       61.711989428128       -2.102040154077
W        18.818401259833       71.509717508969      -10.050360728316
W        15.682001149171       65.831774978658       -8.892540656659
W        18.818401253566       67.463132423508       -3.354420256655
W        15.682001042523       73.201637116638       -2.102040154077
W        18.818401266089       82.999365197479      -10.050360728316
W        15.682001155427       77.321422667168       -8.892540656659
W        18.818401259822       78.952780112018       -3.354420256655
W        15.682001048779       84.691284805149       -2.102040154077
W        18.818401272345       94.489012885989      -10.050360728316
W        15.682001161684       88.811070355678       -8.892540656659
W        18.818401266078       90.442427800529       -3.354420256655
W        15.682001055035       96.180932493659       -2.102040154077
W        18.818401278602      105.978660574500      -10.050360728316
W        15.682001167940      100.300718044189       -8.892540656659
W        18.818401272335      101.932075489039       -3.354420256655
W        15.682001061291      107.670580182169       -2.102040154077
W        18.818401284858      117.468308263010      -10.050360728316
W        15.682001011103      111.790365732699       -8.892540656659
W        18.818401278591      113.421723177549       -3.354420256655
W        15.682001067548      119.160227870680       -2.102040154077
W        18.818401291114      128.957955951520      -10.050360728316
W        15.682001017359      123.280013421210       -8.892540656659
W        18.818401284847      124.911370866060       -3.354420256655
W        15.682001073804      130.649875559190       -2.102040154077
W        18.818401297370      140.447603640031      -10.050360728316
W        15.682001023615      134.769661109720       -8.892540656659
W        18.818401291103      136.401018554570       -3.354420256655
W        15.682001080060      142.139523247700       -2.102040154077
W        18.818401303626      151.937251328541      -10.050360728316
W        15.682001029872      146.259308798230       -8.892540656659
W        18.818401297359      147.890666243080       -3.354420256655
W        15.682001086316      153.629170936211       -2.102040154077
W        18.818401309882      163.426899017051      -10.050360728316
W        15.682001036128      157.748956486741       -8.892540656659
W        18.818401303615      159.380313931591       -3.354420256655
W        15.682001092572      165.118818624721       -2.102040154077
W        18.818401316139      174.916546705562      -10.050360728316
W        15.682001042384      169.238604175251       -8.892540656659
W        18.818401309872      170.869961620101       -3.354420256655
W        15.682001098828      176.608466313232       -2.102040154077
W        18.818401322395      186.406194394072      -10.050360728316
W        15.682001048640      180.728251863761       -8.892540656659
W        18.818401316128      182.359609308611       -3.354420256655
W        15.682001105085      188.098114001742       -2.102040154077
W        18.818401328651      197.895842082582      -10.050360728316
W        15.682001054896      192.217899552272       -8.892540656659
W        18.818401322384      193.849256997122       -3.354420256655
W        15.682001111341      199.587761690252       -2.102040154077
W        18.818401334907      209.385489771093      -10.050360728316
W        15.682001061152      203.707547240782       -8.892540656659
W        18.818401328640      205.338904685632       -3.354420256655
W        15.682001117597      211.077409378763       -2.102040154077
W        25.091201788940     -204.241827440397      -10.050360728316
W        21.954801515185     -209.919769970708       -8.892540656659
W        25.091201782673     -208.288412525858       -3.354420256655
W        21.954801571629     -202.549907832727       -2.102040154077
W        25.091201795196     -192.752179751887      -10.050360728316
W        21.954801521441     -198.430122282197       -8.892540656659
W        25.091201788929     -196.798764837347       -3.354420256655
W        21.954801577886     -191.060260144217       -2.102040154077
W        25.091201801452     -181.262532063376      -10.050360728316
W        21.954801527697     -186.940474593687       -8.892540656659
W        25.091201801458     -185.309116723720       -3.354420256655
W        21.954801584142     -179.570612455706       -2.102040154077
W        25.091201807708     -169.772884374866      -10.050360728316
W        21.954801533953     -175.450826905177       -8.892540656659
W        25.091201807714     -173.819469035209       -3.354420256655
W        21.954801590398     -168.080964767196       -2.102040154077
W        25.091201813964     -158.283236686355      -10.050360728316
W        21.954801540210     -163.961179216666       -8.892540656659
W        25.091201813970     -162.329821346699       -3.354420256655
W        21.954801596654     -156.591317078686       -2.102040154077
W        25.091201657128     -146.793588997845      -10.050360728316
W        21.954801546466     -152.471531528156       -8.892540656659
W        25.091201820226     -150.840173658189       -3.354420256655
W        21.954801439817     -145.101669390175       -2.102040154077
W        25.091201663384     -135.303941309335      -10.050360728316
W        21.954801552722     -140.981883839646       -8.892540656659
W        25.091201663390     -139.350525969678       -3.354420256655
W        21.954801446074     -133.612021701665       -2.102040154077
W        25.091201669640     -123.814293620824      -10.050360728316
W        21.954801558978     -129.492236151135       -8.892540656659
W        25.091201669646     -127.860878281168       -3.354420256655
W        21.954801452330     -122.122374013155       -2.102040154077
W        25.091201675896     -112.324645932314      -10.050360728316
W        21.954801565234     -118.002588462625       -8.892540656659
W        25.091201675902     -116.371230592658       -3.354420256655
W        21.954801458586     -110.632726324644       -2.102040154077
W        25.091201682152     -100.834998243804      -10.050360728316
W        21.954801571490     -106.512940774114       -8.892540656659
W        25.091201682158     -104.881582904147       -3.354420256655
W        21.954801464842      -99.143078636134       -2.102040154077
W        25.091201688408      -89.345350555293      -10.050360728316
W        21.954801577747      -95.023293085604       -8.892540656659
W        25.091201688414      -93.391935215637       -3.354420256655
W        21.954801471098      -87.653430947624       -2.102040154077
W        25.091201700937      -77.855702441666      -10.050360728316
W        21.954801584003      -83.533645397094       -8.892540656659
W        25.091201694670      -81.902287527127       -3.354420256655
W        21.954801477354      -76.163783259113       -2.102040154077
W        25.091201707194      -66.366054753156      -10.050360728316
W        21.954801590259      -72.043997708583       -8.892540656659
W        25.091201700927      -70.412639838616       -3.354420256655
W        21.954801483611      -64.674135570603       -2.102040154077
W        25.091201713450      -54.876407064645      -10.050360728316
W        21.954801596515      -60.554350020073       -8.892540656659
W        25.091201707183      -58.922992150106       -3.354420256655
W        21.954801489867      -53.184487882092       -2.102040154077
W        25.091201719706      -43.386759376135      -10.050360728316
W        21.954801439678      -49.064702331563       -8.892540656659
W        25.091201713439      -47.433344461596       -3.354420256655
W        21.954801496123      -41.694840193582       -2.102040154077
W        25.091201725962      -31.897111687625      -10.050360728316
W        21.954801445935      -37.575054643052       -8.892540656659
W        25.091201719695      -35.943696773085       -3.354420256655
W        21.954801508652      -30.205192079955       -2.102040154077
W        25.091201732218      -20.407463999114      -10.050360728316
W        21.954801452191      -26.085406954542       -8.892540656659
W        25.091201725951      -24.454049084575       -3.354420256655
W        21.954801514908      -18.715544391444       -2.102040154077
W        25.091201738474       -8.917816310604      -10.050360728316
W        21.954801458447      -14.595759266032       -8.892540656659
W        25.091201732207      -12.964401396065       -3.354420256655
W        21.954801521164       -7.225896702934       -2.102040154077
W        25.091201744731        2.571831377906      -10.050360728316
W        21.954801470976       -3.106111152404       -8.892540656659
W        25.091201738464       -1.474753707554       -3.354420256655
W        21.954801527420        4.263750985576       -2.102040154077
W        25.091201750987       14.061479066417      -10.050360728316
W        21.954801477232        8.383536536106       -8.892540656659
W        25.091201744720       10.014893980956       -3.354420256655
W        21.954801533677       15.753398674087       -2.102040154077
W        25.091201757243       25.551126754927      -10.050360728316
W        21.954801483488       19.873184224616       -8.892540656659
W        25.091201750976       21.504541669467       -3.354420256655
W        21.954801539933       27.243046362597       -2.102040154077
W        25.091201763499       37.040774443437      -10.050360728316
W        21.954801489744       31.362831913127       -8.892540656659
W        25.091201757232       32.994189357977       -3.354420256655
W        21.954801546189       38.732694051107       -2.102040154077
W        25.091201769755       48.530422131948      -10.050360728316
W        21.954801496001       42.852479601637       -8.892540656659
W        25.091201763488       44.483837046487       -3.354420256655
W        21.954801552445       50.222341739618       -2.102040154077
W        25.091201776011       60.020069820458      -10.050360728316
W        21.954801502257       54.342127290147       -8.892540656659
W        25.091201769745       55.973484734998       -3.354420256655
W        21.954801558701       61.711989428128       -2.102040154077
W        25.091201782268       71.509717508969      -10.050360728316
W        21.954801508513       65.831774978658       -8.892540656659
W        25.091201776001       67.463132423508       -3.354420256655
W        21.954801564957       73.201637116638       -2.102040154077
W        25.091201788524       82.999365197479      -10.050360728316
W        21.954801514769       77.321422667168       -8.892540656659
W        25.091201782257       78.952780112018       -3.354420256655
W        21.954801571214       84.691284805149       -2.102040154077
W        25.091201794780       94.489012885989      -10.050360728316
W        21.954801521025       88.811070355678       -8.892540656659
W        25.091201788513       90.442427800529       -3.354420256655
W        21.954801577470       96.180932493659       -2.102040154077
W        25.091201801036      105.978660574500      -10.050360728316
W        21.954801527281      100.300718044189       -8.892540656659
W        25.091201794769      101.932075489039       -3.354420256655
W        21.954801583726      107.670580182169       -2.102040154077
W        25.091201807292      117.468308263010      -10.050360728316
W        21.954801533538      111.790365732699       -8.892540656659
W        25.091201801025      113.421723177549       -3.354420256655
W        21.954801589982      119.160227870680       -2.102040154077
W        25.091201813548      128.957955951520      -10.050360728316
W        21.954801539794      123.280013421210       -8.892540656659
W        25.091201807282      124.911370866060       -3.354420256655
W        21.954801596238      130.649875559190       -2.102040154077
W        25.091201656712      140.447603640031      -10.050360728316
W        21.954801546050      134.769661109720       -8.892540656659
W        25.091201813538      136.401018554570       -3.354420256655
W        21.954801602494      142.139523247700       -2.102040154077
W        25.091201662968      151.937251328541      -10.050360728316
W        21.954801552306      146.259308798230       -8.892540656659
W        25.091201656701      147.890666243080       -3.354420256655
W        21.954801445658      153.629170936211       -2.102040154077
W        25.091201669224      163.426899017051      -10.050360728316
W        21.954801558562      157.748956486741       -8.892540656659
W        25.091201662957      159.380313931591       -3.354420256655
W        21.954801451914      165.118818624721       -2.102040154077
W        25.091201675480      174.916546705562      -10.050360728316
W        21.954801564818      169.238604175251       -8.892540656659
W        25.091201669213      170.869961620101       -3.354420256655
W        21.954801458170      176.608466313232       -2.102040154077
W        25.091201681737      186.406194394072      -10.050360728316
W        21.954801571075      180.728251863761       -8.892540656659
W        25.091201675470      182.359609308611       -3.354420256655
W        21.954801464426      188.098114001742       -2.102040154077
W        25.091201687993      197.895842082582      -10.050360728316
W        21.954801577331      192.217899552272       -8.892540656659
W        25.091201681726      193.849256997122       -3.354420256655
W        21.954801470683      199.587761690252       -2.102040154077
W        25.091201694249      209.385489771093      -10.050360728316
W        21.954801583587      203.707547240782       -8.892540656659
W        25.091201687982      205.338904685632       -3.354420256655
W        21.954801476939      211.077409378763       -2.102040154077
W        31.364002148281     -204.241827440397      -10.050360728316
W        28.227601874527     -209.919769970708       -8.892540656659
W        31.364002142014     -208.288412525858       -3.354420256655
W        28.227601930971     -202.549907832727       -2.102040154077
W        31.364002154538     -192.752179751887      -10.050360728316
W        28.227601880783     -198.430122282197       -8.892540656659
W        31.364002148271     -196.798764837347       -3.354420256655
W        28.227601937227     -191.060260144217       -2.102040154077
W        31.364002160794     -181.262532063376      -10.050360728316
W        28.227601887039     -186.940474593687       -8.892540656659
W        31.364002160800     -185.309116723720       -3.354420256655
W        28.227601943484     -179.570612455706       -2.102040154077
W        31.364002167050     -169.772884374866      -10.050360728316
W        28.227601893295     -175.450826905177       -8.892540656659
W        31.364002167056     -173.819469035209       -3.354420256655
W        28.227601949740     -168.080964767196       -2.102040154077
W        31.364002173306     -158.283236686355      -10.050360728316
W        28.227601899551     -163.961179216666       -8.892540656659
W        31.364002173312     -162.329821346699       -3.354420256655
W        28.227601955996     -156.591317078686       -2.102040154077
W        31.364002179562     -146.793588997845      -10.050360728316
W        28.227601905808     -152.471531528156       -8.892540656659
W        31.364002179568     -150.840173658189       -3.354420256655
W        28.227601962252     -145.101669390175       -2.102040154077
W        31.364002185818     -135.303941309335      -10.050360728316
W        28.227601912064     -140.981883839646       -8.892540656659
W        31.364002185824     -139.350525969678       -3.354420256655
W        28.227601968508     -133.612021701665       -2.102040154077
W        31.364002192075     -123.814293620824      -10.050360728316
W        28.227601918320     -129.492236151135       -8.892540656659
W        31.364002192080     -127.860878281168       -3.354420256655
W        28.227601974764     -122.122374013155       -2.102040154077
W        31.364002198331     -112.324645932314      -10.050360728316
W        28.227601924576     -118.002588462625       -8.892540656659
W        31.364002198337     -116.371230592658       -3.354420256655
W        28.227601981021     -110.632726324644       -2.102040154077
W        31.364002204587     -100.834998243804      -10.050360728316
W        28.227601930832     -106.512940774114       -8.892540656659
W        31.364002204593     -104.881582904147       -3.354420256655
W        28.227601987277      -99.143078636134       -2.102040154077
W        31.364002210843      -89.345350555293      -10.050360728316
W        28.227601937088      -95.023293085604       -8.892540656659
W        31.364002210849      -93.391935215637       -3.354420256655
W        28.227601993533      -87.653430947624       -2.102040154077
W        31.364002223372      -77.855702441666      -10.050360728316
W        28.227601943345      -83.533645397094       -8.892540656659
W        31.364002217105      -81.902287527127       -3.354420256655
W        28.227601999789      -76.163783259113       -2.102040154077
W        31.364002229628      -66.366054753156      -10.050360728316
W        28.227601949601      -72.043997708583       -8.892540656659
W        31.364002223361      -70.412639838616       -3.354420256655
W        28.227602006045      -64.674135570603       -2.102040154077
W        31.364002235884      -54.876407064645      -10.050360728316
W        28.227601955857      -60.554350020073       -8.892540656659
W        31.364002229617      -58.922992150106       -3.354420256655
W        28.227602012301      -53.184487882092       -2.102040154077
W        31.364002242141      -43.386759376135      -10.050360728316
W        28.227601962113      -49.064702331563       -8.892540656659
W        31.364002235874      -47.433344461596       -3.354420256655
W        28.227602018558      -41.694840193582       -2.102040154077
W        31.364002248397      -31.897111687625      -10.050360728316
W        28.227601968369      -37.575054643052       -8.892540656659
W        31.364002242130      -35.943696773085       -3.354420256655
W        28.227602031087      -30.205192079955       -2.102040154077
W        31.364002254653      -20.407463999114      -10.050360728316
W        28.227601974625      -26.085406954542       -8.892540656659
W        31.364002248386      -24.454049084575       -3.354420256655
W        28.227602037343      -18.715544391444       -2.102040154077
W        31.364002097816       -8.917816310604      -10.050360728316
W        28.227601980882      -14.595759266032       -8.892540656659
W        31.364002254642      -12.964401396065       -3.354420256655
W        28.227601880506       -7.225896702934       -2.102040154077
W        31.364002104072        2.571831377906      -10.050360728316
W        28.227601993411       -3.106111152404       -8.892540656659
W        31.364002097805       -1.474753707554       -3.354420256655
W        28.227601886762        4.263750985576       -2.102040154077
W        31.364002110329       14.061479066417      -10.050360728316
W        28.227601999667        8.383536536106       -8.892540656659
W        31.364002104062       10.014893980956       -3.354420256655
W        28.227601893018       15.753398674087       -2.102040154077
W        31.364002116585       25.551126754927      -10.050360728316
W        28.227602005923       19.873184224616       -8.892540656659
W        31.364002110318       21.504541669467       -3.354420256655
W        28.227601899275       27.243046362597       -2.102040154077
W        31.364002122841       37.040774443437      -10.050360728316
W        28.227602012179       31.362831913127       -8.892540656659
W        31.364002116574       32.994189357977       -3.354420256655
W        28.227601905531       38.732694051107       -2.102040154077
W        31.364002129097       48.530422131948      -10.050360728316
W        28.227602018435       42.852479601637       -8.892540656659
W        31.364002122830       44.483837046487       -3.354420256655
W        28.227601911787       50.222341739618       -2.102040154077
W        31.364002135353       60.020069820458      -10.050360728316
W        28.227602024691       54.342127290147       -8.892540656659
W        31.364002129086       55.973484734998       -3.354420256655
W        28.227601918043       61.711989428128       -2.102040154077
W        31.364002141609       71.509717508969      -10.050360728316
W        28.227602030948       65.831774978658       -8.892540656659
W        31.364002135342       67.463132423508       -3.354420256655
W        28.227601924299       73.201637116638       -2.102040154077
W        31.364002147866       82.999365197479      -10.050360728316
W        28.227602037204       77.321422667168       -8.892540656659
W        31.364002141599       78.952780112018       -3.354420256655
W        28.227601930555       84.691284805149       -2.102040154077
W        31.364002154122       94.489012885989      -10.050360728316
W        28.227601880367       88.811070355678       -8.892540656659
W        31.364002147855       90.442427800529       -3.354420256655
W        28.227601936812       96.180932493659       -2.102040154077
W        31.364002160378      105.978660574500      -10.050360728316
W        28.227601886623      100.300718044189       -8.892540656659
W        31.364002154111      101.932075489039       -3.354420256655
W        28.227601943068      107.670580182169       -2.102040154077
W        31.364002166634      117.468308263010      -10.050360728316
W        28.227601892879      111.790365732699       -8.892540656659
W        31.364002160367      113.421723177549       -3.354420256655
W        28.227601949324      119.160227870680       -2.102040154077
W        31.364002172890      128.957955951520      -10.050360728316
W        28.227601899136      123.280013421210       -8.892540656659
W        31.364002166623      124.911370866060       -3.354420256655
W        28.227601955580      130.649875559190       -2.102040154077
W        31.364002179146      140.447603640031      -10.050360728316
W        28.227601905392      134.769661109720       -8.892540656659
W        31.364002172879      136.401018554570       -3.354420256655
W        28.227601961836      142.139523247700       -2.102040154077
W        31.364002185403      151.937251328541      -10.050360728316
W        28.227601911648      146.259308798230       -8.892540656659
W        31.364002179136      147.890666243080       -3.354420256655
W        28.227601968092      153.629170936211       -2.102040154077
W        31.364002191659      163.426899017051      -10.050360728316
W        28.227601917904      157.748956486741       -8.892540656659
W        31.364002185392      159.380313931591       -3.354420256655
W        28.227601974349      165.118818624721       -2.102040154077
W        31.364002197915      174.916546705562      -10.050360728316
W        28.227601924160      169.238604175251       -8.892540656659
W        31.364002191648      170.869961620101       -3.354420256655
W        28.227601980605      176.608466313232       -2.102040154077
W        31.364002204171      186.406194394072      -10.050360728316
W        28.227601930416      180.728251863761       -8.892540656659
W        31.364002197904      182.359609308611       -3.354420256655
W        28.227601986861      188.098114001742       -2.102040154077
W        31.364002210427      197.895842082582      -10.050360728316
W        28.227601936673      192.217899552272       -8.892540656659
W        31.364002204160      193.849256997122       -3.354420256655
W        28.227601993117      199.587761690252       -2.102040154077
W        31.364002216683      209.385489771093      -10.050360728316
W        28.227601942929      203.707547240782       -8.892540656659
W        31.364002210416      205.338904685632       -3.354420256655
W        28.227601999373      211.077409378763       -2.102040154077
W        37.636802670716     -204.241827440397      -10.050360728316
W        34.500402396961     -209.919769970708       -8.892540656659
W        37.636802664449     -208.288412525858       -3.354420256655
W        34.500402453406     -202.549907832727       -2.102040154077
W        37.636802676972     -192.752179751887      -10.050360728316
W        34.500402403217     -198.430122282197       -8.892540656659
W        37.636802670705     -196.798764837347       -3.354420256655
W        34.500402459662     -191.060260144217       -2.102040154077
W        37.636802683228     -181.262532063376      -10.050360728316
W        34.500402409474     -186.940474593687       -8.892540656659
W        37.636802683234     -185.309116723720       -3.354420256655
W        34.500402465918     -179.570612455706       -2.102040154077
W        37.636802526392     -169.772884374866      -10.050360728316
W        34.500402415730     -175.450826905177       -8.892540656659
W        37.636802689490     -173.819469035209       -3.354420256655
W        34.500402309082     -168.080964767196       -2.102040154077
W        37.636802532648     -158.283236686355      -10.050360728316
W        34.500402421986     -163.961179216666       -8.892540656659
W        37.636802532654     -162.329821346699       -3.354420256655
W        34.500402315338     -156.591317078686       -2.102040154077
W        37.636802538904     -146.793588997845      -10.050360728316
W        34.500402428242     -152.471531528156       -8.892540656659
W        37.636802538910     -150.840173658189       -3.354420256655
W        34.500402321594     -145.101669390175       -2.102040154077
W        37.636802545160     -135.303941309335      -10.050360728316
W        34.500402434498     -140.981883839646       -8.892540656659
W        37.636802545166     -139.350525969678       -3.354420256655
W        34.500402327850     -133.612021701665       -2.102040154077
W        37.636802551416     -123.814293620824      -10.050360728316
W        34.500402440754     -129.492236151135       -8.892540656659
W        37.636802551422     -127.860878281168       -3.354420256655
W        34.500402334106     -122.122374013155       -2.102040154077
W        37.636802557672     -112.324645932314      -10.050360728316
W        34.500402447011     -118.002588462625       -8.892540656659
W        37.636802557678     -116.371230592658       -3.354420256655
W        34.500402340362     -110.632726324644       -2.102040154077
W        37.636802563929     -100.834998243804      -10.050360728316
W        34.500402453267     -106.512940774114       -8.892540656659
W        37.636802563935     -104.881582904147       -3.354420256655
W        34.500402346619      -99.143078636134       -2.102040154077
W        37.636802570185      -89.345350555293      -10.050360728316
W        34.500402459523      -95.023293085604       -8.892540656659
W        37.636802570191      -93.391935215637       -3.354420256655
W        34.500402352875      -87.653430947624       -2.102040154077
W        37.636802582714      -77.855702441666      -10.050360728316
W        34.500402465779      -83.533645397094       -8.892540656659
W        37.636802576447      -81.902287527127       -3.354420256655
W        34.500402359131      -76.163783259113       -2.102040154077
W        37.636802588970      -66.366054753156      -10.050360728316
W        34.500402308942      -72.043997708583       -8.892540656659
W        37.636802582703      -70.412639838616       -3.354420256655
W        34.500402365387      -64.674135570603       -2.102040154077
W        37.636802595226      -54.876407064645      -10.050360728316
W        34.500402315199      -60.554350020073       -8.892540656659
W        37.636802588959      -58.922992150106       -3.354420256655
W        34.500402371643      -53.184487882092       -2.102040154077
W        37.636802601482      -43.386759376135      -10.050360728316
W        34.500402321455      -49.064702331563       -8.892540656659
W        37.636802595215      -47.433344461596       -3.354420256655
W        34.500402377899      -41.694840193582       -2.102040154077
W        37.636802607738      -31.897111687625      -10.050360728316
W        34.500402327711      -37.575054643052       -8.892540656659
W        37.636802601472      -35.943696773085       -3.354420256655
W        34.500402390428      -30.205192079955       -2.102040154077
W        37.636802613995      -20.407463999114      -10.050360728316
W        34.500402333967      -26.085406954542       -8.892540656659
W        37.636802607728      -24.454049084575       -3.354420256655
W        34.500402396684      -18.715544391444       -2.102040154077
W        37.636802620251       -8.917816310604      -10.050360728316
W        34.500402340223      -14.595759266032       -8.892540656659
W        37.636802613984      -12.964401396065       -3.354420256655
W        34.500402402941       -7.225896702934       -2.102040154077
W        37.636802626507        2.571831377906      -10.050360728316
W        34.500402352752       -3.106111152404       -8.892540656659
W        37.636802620240       -1.474753707554       -3.354420256655
W        34.500402409197        4.263750985576       -2.102040154077
W        37.636802632763       14.061479066417      -10.050360728316
W        34.500402359008        8.383536536106       -8.892540656659
W        37.636802626496       10.014893980956       -3.354420256655
W        34.500402415453       15.753398674087       -2.102040154077
W        37.636802639019       25.551126754927      -10.050360728316
W        34.500402365265       19.873184224616       -8.892540656659
W        37.636802632752       21.504541669467       -3.354420256655
W        34.500402421709       27.243046362597       -2.102040154077
W        37.636802645275       37.040774443437      -10.050360728316
W        34.500402371521       31.362831913127       -8.892540656659
W        37.636802639009       32.994189357977       -3.354420256655
W        34.500402427965       38.732694051107       -2.102040154077
W        37.636802651532       48.530422131948      -10.050360728316
W        34.500402377777       42.852479601637       -8.892540656659
W        37.636802645265       44.483837046487       -3.354420256655
W        34.500402434222       50.222341739618       -2.102040154077
W        37.636802657788       60.020069820458      -10.050360728316
W        34.500402384033       54.342127290147       -8.892540656659
W        37.636802651521       55.973484734998       -3.354420256655
W        34.500402440478       61.711989428128       -2.102040154077
W        37.636802664044       71.509717508969      -10.050360728316
W        34.500402390289       65.831774978658       -8.892540656659
W        37.636802657777       67.463132423508       -3.354420256655
W        34.500402446734       73.201637116638       -2.102040154077
W        37.636802670300       82.999365197479      -10.050360728316
W        34.500402396545       77.321422667168       -8.892540656659
W        37.636802664033       78.952780112018       -3.354420256655
W        34.500402452990       84.691284805149       -2.102040154077
W        37.636802676556       94.489012885989      -10.050360728316
W        34.500402402802       88.811070355678       -8.892540656659
W        37.636802670289       90.442427800529       -3.354420256655
W        34.500402459246       96.180932493659       -2.102040154077
W        37.636802682813      105.978660574500      -10.050360728316
W        34.500402409058      100.300718044189       -8.892540656659
W        37.636802676546      101.932075489039       -3.354420256655
W        34.500402465502      107.670580182169       -2.102040154077
W        37.636802689069      117.468308263010      -10.050360728316
W        34.500402415314      111.790365732699       -8.892540656659
W        37.636802682802      113.421723177549       -3.354420256655
W        34.500402471759      119.160227870680       -2.102040154077
W        37.636802532232      128.957955951520      -10.050360728316
W        34.500402421570      123.280013421210       -8.892540656659
W        37.636802525965      124.911370866060       -3.354420256655
W        34.500402314922      130.649875559190       -2.102040154077
W        37.636802538488      140.447603640031      -10.050360728316
W        34.500402427826      134.769661109720       -8.892540656659
W        37.636802532221      136.401018554570       -3.354420256655
W        34.500402321178      142.139523247700       -2.102040154077
W        37.636802544744      151.937251328541      -10.050360728316
W        34.500402434082      146.259308798230       -8.892540656659
W        37.636802538477      147.890666243080       -3.354420256655
W        34.500402327434      153.629170936211       -2.102040154077
W        37.636802551001      163.426899017051      -10.050360728316
W        34.500402440339      157.748956486741       -8.892540656659
W        37.636802544734      159.380313931591       -3.354420256655
W        34.500402333690      165.118818624721       -2.102040154077
W        37.636802557257      174.916546705562      -10.050360728316
W        34.500402446595      169.238604175251       -8.892540656659
W        37.636802550990      170.869961620101       -3.354420256655
W        34.500402339947      176.608466313232       -2.102040154077
W        37.636802563513      186.406194394072      -10.050360728316
W        34.500402452851      180.728251863761       -8.892540656659
W        37.636802557246      182.359609308611       -3.354420256655
W        34.500402346203      188.098114001742       -2.102040154077
W        37.636802569769      197.895842082582      -10.050360728316
W        34.500402459107      192.217899552272       -8.892540656659
W        37.636802563502      193.849256997122       -3.354420256655
W        34.500402352459      199.587761690252       -2.102040154077
W        37.636802576025      209.385489771093      -10.050360728316
W        34.500402465363      203.707547240782       -8.892540656659
W        37.636802569758      205.338904685632       -3.354420256655
W        34.500402358715      211.077409378763       -2.102040154077
W        43.909603030058     -204.241827440397      -10.050360728316
W        40.773202756303     -209.919769970708       -8.892540656659
W        43.909603023791     -208.288412525858       -3.354420256655
W        40.773202812748     -202.549907832727       -2.102040154077
W        43.909603036314     -192.752179751887      -10.050360728316
W        40.773202762559     -198.430122282197       -8.892540656659
W        43.909603030047     -196.798764837347       -3.354420256655
W        40.773202819004     -191.060260144217       -2.102040154077
W        43.909603042570     -181.262532063376      -10.050360728316
W        40.773202768815     -186.940474593687       -8.892540656659
W        43.909603042576     -185.309116723720       -3.354420256655
W        40.773202825260     -179.570612455706       -2.102040154077
W        43.909603048826     -169.772884374866      -10.050360728316
W        40.773202775072     -175.450826905177       -8.892540656659
W        43.909603048832     -173.819469035209       -3.354420256655
W        40.773202831516     -168.080964767196       -2.102040154077
W        43.909603055082     -158.283236686355      -10.050360728316
W        40.773202781328     -163.961179216666       -8.892540656659
W        43.909603055088     -162.329821346699       -3.354420256655
W        40.773202837772     -156.591317078686       -2.102040154077
W        43.909603061339     -146.793588997845      -10.050360728316
W        40.773202787584     -152.471531528156       -8.892540656659
W        43.909603061344     -150.840173658189       -3.354420256655
W        40.773202844028     -145.101669390175       -2.102040154077
W        43.909603067595     -135.303941309335      -10.050360728316
W        40.773202793840     -140.981883839646       -8.892540656659
W        43.909603067601     -139.350525969678       -3.354420256655
W        40.773202850285     -133.612021701665       -2.102040154077
W        43.909603073851     -123.814293620824      -10.050360728316
W        40.773202800096     -129.492236151135       -8.892540656659
W        43.909603073857     -127.860878281168       -3.354420256655
W        40.773202856541     -122.122374013155       -2.102040154077
W        43.909603080107     -112.324645932314      -10.050360728316
W        40.773202806352     -118.002588462625       -8.892540656659
W        43.909603080113     -116.371230592658       -3.354420256655
W        40.773202862797     -110.632726324644       -2.102040154077
W        43.909603086363     -100.834998243804      -10.050360728316
W        40.773202812609     -106.512940774114       -8.892540656659
W        43.909603086369     -104.881582904147       -3.354420256655
W        40.773202869053      -99.143078636134       -2.102040154077
W        43.909603092619      -89.345350555293      -10.050360728316
W        40.773202818865      -95.023293085604       -8.892540656659
W        43.909603092625      -93.391935215637       -3.354420256655
W        40.773202875309      -87.653430947624       -2.102040154077
W        43.909603105148      -77.855702441666      -10.050360728316
W        40.773202825121      -83.533645397094       -8.892540656659
W        43.909603098881      -81.902287527127       -3.354420256655
W        40.773202881565      -76.163783259113       -2.102040154077
W        43.909603111405      -66.366054753156      -10.050360728316
W        40.773202831377      -72.043997708583       -8.892540656659
W        43.909603105138      -70.412639838616       -3.354420256655
W        40.773202887822      -64.674135570603       -2.102040154077
W        43.909603117661      -54.876407064645      -10.050360728316
W        40.773202837633      -60.554350020073       -8.892540656659
W        43.909603111394      -58.922992150106       -3.354420256655
W        40.773202894078      -53.184487882092       -2.102040154077
W        43.909603123917      -43.386759376135      -10.050360728316
W        40.773202843889      -49.064702331563       -8.892540656659
W        43.909603117650      -47.433344461596       -3.354420256655
W        40.773202900334      -41.694840193582       -2.102040154077
W        43.909602967080      -31.897111687625      -10.050360728316
W        40.773202850146      -37.575054643052       -8.892540656659
W        43.909603123906      -35.943696773085       -3.354420256655
W        40.773202749770      -30.205192079955       -2.102040154077
W        43.909602973336      -20.407463999114      -10.050360728316
W        40.773202856402      -26.085406954542       -8.892540656659
W        43.909602967069      -24.454049084575       -3.354420256655
W        40.773202756026      -18.715544391444       -2.102040154077
W        43.909602979593       -8.917816310604      -10.050360728316
W        40.773202862658      -14.595759266032       -8.892540656659
W        43.909602973326      -12.964401396065       -3.354420256655
W        40.773202762282       -7.225896702934       -2.102040154077
W        43.909602985849        2.571831377906      -10.050360728316
W        40.773202875187       -3.106111152404       -8.892540656659
W        43.909602979582       -1.474753707554       -3.354420256655
W        40.773202768539        4.263750985576       -2.102040154077
W        43.909602992105       14.061479066417      -10.050360728316
W        40.773202881443        8.383536536106       -8.892540656659
W        43.909602985838       10.014893980956       -3.354420256655
W        40.773202774795       15.753398674087       -2.102040154077
W        43.909602998361       25.551126754927      -10.050360728316
W        40.773202887699       19.873184224616       -8.892540656659
W        43.909602992094       21.504541669467       -3.354420256655
W        40.773202781051       27.243046362597       -2.102040154077
W        43.909603004617       37.040774443437      -10.050360728316
W        40.773202893955       31.362831913127       -8.892540656659
W        43.909602998350       32.994189357977       -3.354420256655
W        40.773202787307       38.732694051107       -2.102040154077
W        43.909603010873       48.530422131948      -10.050360728316
W        40.773202900212       42.852479601637       -8.892540656659
W        43.909603004606       44.483837046487       -3.354420256655
W        40.773202793563       50.222341739618       -2.102040154077
W        43.909603017130       60.020069820458      -10.050360728316
W        40.773202906468       54.342127290147       -8.892540656659
W        43.909603010863       55.973484734998       -3.354420256655
W        40.773202799819       61.711989428128       -2.102040154077
W        43.909603023386       71.509717508969      -10.050360728316
W        40.773202749631       65.831774978658       -8.892540656659
W        43.909603017119       67.463132423508       -3.354420256655
W        40.773202806076       73.201637116638       -2.102040154077
W        43.909603029642       82.999365197479      -10.050360728316
W        40.773202755887       77.321422667168       -8.892540656659
W        43.909603023375       78.952780112018       -3.354420256655
W        40.773202812332       84.691284805149       -2.102040154077
W        43.909603035898       94.489012885989      -10.050360728316
W        40.773202762143       88.811070355678       -8.892540656659
W        43.909603029631       90.442427800529       -3.354420256655
W        40.773202818588       96.180932493659       -2.102040154077
W        43.909603042154      105.978660574500      -10.050360728316
W        40.773202768400      100.300718044189       -8.892540656659
W        43.909603035887      101.932075489039       -3.354420256655
W        40.773202824844      107.670580182169       -2.102040154077
W        43.909603048410      117.468308263010      -10.050360728316
W        40.773202774656      111.790365732699       -8.892540656659
W        43.909603042144      113.421723177549       -3.354420256655
W        40.773202831100      119.160227870680       -2.102040154077
W        43.909603054667      128.957955951520      -10.050360728316
W        40.773202780912      123.280013421210       -8.892540656659
W        43.909603048400      124.911370866060       -3.354420256655
W        40.773202837356      130.649875559190       -2.102040154077
W        43.909603060923      140.447603640031      -10.050360728316
W        40.773202787168      134.769661109720       -8.892540656659
W        43.909603054656      136.401018554570       -3.354420256655
W        40.773202843613      142.139523247700       -2.102040154077
W        43.909603067179      151.937251328541      -10.050360728316
W        40.773202793424      146.259308798230       -8.892540656659
W        43.909603060912      147.890666243080       -3.354420256655
W        40.773202849869      153.629170936211       -2.102040154077
W        43.909603073435      163.426899017051      -10.050360728316
W        40.773202799680      157.748956486741       -8.892540656659
W        43.909603067168      159.380313931591       -3.354420256655
W        40.773202856125      165.118818624721       -2.102040154077
W        43.909603079691      174.916546705562      -10.050360728316
W        40.773202805937      169.238604175251       -8.892540656659
W        43.909603073424      170.869961620101       -3.354420256655
W        40.773202862381      176.608466313232       -2.102040154077
W        43.909603085947      186.406194394072      -10.050360728316
W        40.773202812193      180.728251863761       -8.892540656659
W        43.909603079681      182.359609308611       -3.354420256655
W        40.773202868637      188.098114001742       -2.102040154077
W        43.909603092204      197.895842082582      -10.050360728316
W        40.773202818449      192.217899552272       -8.892540656659
W        43.909603085937      193.849256997122       -3.354420256655
W        40.773202874893      199.587761690252       -2.102040154077
W        43.909603098460      209.385489771093      -10.050360728316
W        40.773202824705      203.707547240782       -8.892540656659
W        43.909603092193      205.338904685632       -3.354420256655
W        40.773202881150      211.077409378763       -2.102040154077
W        50.182403552492     -204.241827440397      -10.050360728316
W        47.046003278738     -209.919769970708       -8.892540656659
W        50.182403546225     -208.288412525858       -3.354420256655
W        47.046003335182     -202.549907832727       -2.102040154077
W        50.182403395656     -192.752179751887      -10.050360728316
W        47.046003284994     -198.430122282197       -8.892540656659
W        50.182403552482     -196.798764837347       -3.354420256655
W        47.046003178346     -191.060260144217       -2.102040154077
W        50.182403401912     -181.262532063376      -10.050360728316
W        47.046003291250     -186.940474593687       -8.892540656659
W        50.182403401918     -185.309116723720       -3.354420256655
W        47.046003184602     -179.570612455706       -2.102040154077
W        50.182403408168     -169.772884374866      -10.050360728316
W        47.046003297506     -175.450826905177       -8.892540656659
W        50.182403408174     -173.819469035209       -3.354420256655
W        47.046003190858     -168.080964767196       -2.102040154077
W        50.182403414424     -158.283236686355      -10.050360728316
W        47.046003303762     -163.961179216666       -8.892540656659
W        50.182403414430     -162.329821346699       -3.354420256655
W        47.046003197114     -156.591317078686       -2.102040154077
W        50.182403420680     -146.793588997845      -10.050360728316
W        47.046003310018     -152.471531528156       -8.892540656659
W        50.182403420686     -150.840173658189       -3.354420256655
W        47.046003203370     -145.101669390175       -2.102040154077
W        50.182403426937     -135.303941309335      -10.050360728316
W        47.046003316275     -140.981883839646       -8.892540656659
W        50.182403426942     -139.350525969678       -3.354420256655
W        47.046003209626     -133.612021701665       -2.102040154077
W        50.182403433193     -123.814293620824      -10.050360728316
W        47.046003322531     -129.492236151135       -8.892540656659
W        50.182403433199     -127.860878281168       -3.354420256655
W        47.046003215883     -122.122374013155       -2.102040154077
W        50.182403439449     -112.324645932314      -10.050360728316
W        47.046003328787     -118.002588462625       -8.892540656659
W        50.182403439455     -116.371230592658       -3.354420256655
W        47.046003222139     -110.632726324644       -2.102040154077
W        50.182403445705     -100.834998243804      -10.050360728316
W        47.046003335043     -106.512940774114       -8.892540656659
W        50.182403445711     -104.881582904147       -3.354420256655
W        47.046003228395      -99.143078636134       -2.102040154077
W        50.182403451961      -89.345350555293      -10.050360728316
W        47.046003178207      -95.023293085604       -8.892540656659
W        50.182403451967      -93.391935215637       -3.354420256655
W        47.046003234651      -87.653430947624       -2.102040154077
W        50.182403464490      -77.855702441666      -10.050360728316
W        47.046003184463      -83.533645397094       -8.892540656659
W        50.182403458223      -81.902287527127       -3.354420256655
W        47.046003240907      -76.163783259113       -2.102040154077
W        50.182403470746      -66.366054753156      -10.050360728316
W        47.046003190719      -72.043997708583       -8.892540656659
W        50.182403464479      -70.412639838616       -3.354420256655
W        47.046003247163      -64.674135570603       -2.102040154077
W        50.182403477002      -54.876407064645      -10.050360728316
W        47.046003196975      -60.554350020073       -8.892540656659
W        50.182403470736      -58.922992150106       -3.354420256655
W        47.046003253420      -53.184487882092       -2.102040154077
W        50.182403483259      -43.386759376135      -10.050360728316
W        47.046003203231      -49.064702331563       -8.892540656659
W        50.182403476992      -47.433344461596       -3.354420256655
W        47.046003259676      -41.694840193582       -2.102040154077
W        50.182403489515      -31.897111687625      -10.050360728316
W        47.046003209487      -37.575054643052       -8.892540656659
W        50.182403483248      -35.943696773085       -3.354420256655
W        47.046003272205      -30.205192079955       -2.102040154077
W        50.182403495771      -20.407463999114      -10.050360728316
W        47.046003215744      -26.085406954542       -8.892540656659
W        50.182403489504      -24.454049084575       -3.354420256655
W        47.046003278461      -18.715544391444       -2.102040154077
W        50.182403502027       -8.917816310604      -10.050360728316
W        47.046003222000      -14.595759266032       -8.892540656659
W        50.182403495760      -12.964401396065       -3.354420256655
W        47.046003284717       -7.225896702934       -2.102040154077
W        50.182403508283        2.571831377906      -10.050360728316
W        47.046003234529       -3.106111152404       -8.892540656659
W        50.182403502016       -1.474753707554       -3.354420256655
W        47.046003290973        4.263750985576       -2.102040154077
W        50.182403514540       14.061479066417      -10.050360728316
W        47.046003240785        8.383536536106       -8.892540656659
W        50.182403508273       10.014893980956       -3.354420256655
W        47.046003297229       15.753398674087       -2.102040154077
W        50.182403520796       25.551126754927      -10.050360728316
W        47.046003247041       19.873184224616       -8.892540656659
W        50.182403514529       21.504541669467       -3.354420256655
W        47.046003303486       27.243046362597       -2.102040154077
W        50.182403527052       37.040774443437      -10.050360728316
W        47.046003253297       31.362831913127       -8.892540656659
W        50.182403520785       32.994189357977       -3.354420256655
W        47.046003309742       38.732694051107       -2.102040154077
W        50.182403533308       48.530422131948      -10.050360728316
W        47.046003259553       42.852479601637       -8.892540656659
W        50.182403527041       44.483837046487       -3.354420256655
W        47.046003315998       50.222341739618       -2.102040154077
W        50.182403539564       60.020069820458      -10.050360728316
W        47.046003265810       54.342127290147       -8.892540656659
W        50.182403533297       55.973484734998       -3.354420256655
W        47.046003322254       61.711989428128       -2.102040154077
W        50.182403545820       71.509717508969      -10.050360728316
W        47.046003272066       65.831774978658       -8.892540656659
W        50.182403539553       67.463132423508       -3.354420256655
W        47.046003328510       73.201637116638       -2.102040154077
W        50.182403552077       82.999365197479      -10.050360728316
W        47.046003278322       77.321422667168       -8.892540656659
W        50.182403545810       78.952780112018       -3.354420256655
W        47.046003334766       84.691284805149       -2.102040154077
W        50.182403558333       94.489012885989      -10.050360728316
W        47.046003284578       88.811070355678       -8.892540656659
W        50.182403552066       90.442427800529       -3.354420256655
W        47.046003341023       96.180932493659       -2.102040154077
W        50.182403401496      105.978660574500      -10.050360728316
W        47.046003290834      100.300718044189       -8.892540656659
W        50.182403395229      101.932075489039       -3.354420256655
W        47.046003184186      107.670580182169       -2.102040154077
W        50.182403407752      117.468308263010      -10.050360728316
W        47.046003297090      111.790365732699       -8.892540656659
W        50.182403401485      113.421723177549       -3.354420256655
W        47.046003190442      119.160227870680       -2.102040154077
W        50.182403414008      128.957955951520      -10.050360728316
W        47.046003303347      123.280013421210       -8.892540656659
W        50.182403407741      124.911370866060       -3.354420256655
W        47.046003196698      130.649875559190       -2.102040154077
W        50.182403420265      140.447603640031      -10.050360728316
W        47.046003309603      134.769661109720       -8.892540656659
W        50.182403413998      136.401018554570       -3.354420256655
W        47.046003202954      142.139523247700       -2.102040154077
W        50.182403426521      151.937251328541      -10.050360728316
W        47.046003315859      146.259308798230       -8.892540656659
W        50.182403420254      147.890666243080       -3.354420256655
W        47.046003209211      153.629170936211       -2.102040154077
W        50.182403432777      163.426899017051      -10.050360728316
W        47.046003322115      157.748956486741       -8.892540656659
W        50.182403426510      159.380313931591       -3.354420256655
W        47.046003215467      165.118818624721       -2.102040154077
W        50.182403439033      174.916546705562      -10.050360728316
W        47.046003328371      169.238604175251       -8.892540656659
W        50.182403432766      170.869961620101       -3.354420256655
W        47.046003221723      176.608466313232       -2.102040154077
W        50.182403445289      186.406194394072      -10.050360728316
W        47.046003334627      180.728251863761       -8.892540656659
W        50.182403439022      182.359609308611       -3.354420256655
W        47.046003227979      188.098114001742       -2.102040154077
W        50.182403451545      197.895842082582      -10.050360728316
W        47.046003340884      192.217899552272       -8.892540656659
W        50.182403445278      193.849256997122       -3.354420256655
W        47.046003234235      199.587761690252       -2.102040154077
W        50.182403457802      209.385489771093      -10.050360728316
W        47.046003184047      203.707547240782       -8.892540656659
W        50.182403451535      205.338904685632       -3.354420256655
W        47.046003240491      211.077409378763       -2.102040154077
W        56.455203911834     -204.241827440397      -10.050360728316
W        53.318803638079     -209.919769970708       -8.892540656659
W        56.455203905567     -208.288412525858       -3.354420256655
W        53.318803694524     -202.549907832727       -2.102040154077
W        56.455203918090     -192.752179751887      -10.050360728316
W        53.318803644336     -198.430122282197       -8.892540656659
W        56.455203911823     -196.798764837347       -3.354420256655
W        53.318803700780     -191.060260144217       -2.102040154077
W        56.455203924346     -181.262532063376      -10.050360728316
W        53.318803650592     -186.940474593687       -8.892540656659
W        56.455203924352     -185.309116723720       -3.354420256655
W        53.318803707036     -179.570612455706       -2.102040154077
W        56.455203930603     -169.772884374866      -10.050360728316
W        53.318803656848     -175.450826905177       -8.892540656659
W        56.455203930608     -173.819469035209       -3.354420256655
W        53.318803713292     -168.080964767196       -2.102040154077
W        56.455203936859     -158.283236686355      -10.050360728316
W        53.318803663104     -163.961179216666       -8.892540656659
W        56.455203936865     -162.329821346699       -3.354420256655
W        53.318803719549     -156.591317078686       -2.102040154077
W        56.455203943115     -146.793588997845      -10.050360728316
W        53.318803669360     -152.471531528156       -8.892540656659
W        56.455203943121     -150.840173658189       -3.354420256655
W        53.318803725805     -145.101669390175       -2.102040154077
W        56.455203949371     -135.303941309335      -10.050360728316
W        53.318803675616     -140.981883839646       -8.892540656659
W        56.455203949377     -139.350525969678       -3.354420256655
W        53.318803732061     -133.612021701665       -2.102040154077
W        56.455203955627     -123.814293620824      -10.050360728316
W        53.318803681873     -129.492236151135       -8.892540656659
W        56.455203955633     -127.860878281168       -3.354420256655
W        53.318803738317     -122.122374013155       -2.102040154077
W        56.455203961883     -112.324645932314      -10.050360728316
W        53.318803688129     -118.002588462625       -8.892540656659
W        56.455203961889     -116.371230592658       -3.354420256655
W        53.318803744573     -110.632726324644       -2.102040154077
W        56.455203968140     -100.834998243804      -10.050360728316
W        53.318803694385     -106.512940774114       -8.892540656659
W        56.455203968145     -104.881582904147       -3.354420256655
W        53.318803750829      -99.143078636134       -2.102040154077
W        56.455203974396      -89.345350555293      -10.050360728316
W        53.318803700641      -95.023293085604       -8.892540656659
W        56.455203974402      -93.391935215637       -3.354420256655
W        53.318803757086      -87.653430947624       -2.102040154077
W        56.455203986925      -77.855702441666      -10.050360728316
W        53.318803706897      -83.533645397094       -8.892540656659
W        56.455203980658      -81.902287527127       -3.354420256655
W        53.318803763342      -76.163783259113       -2.102040154077
W        56.455203993181      -66.366054753156      -10.050360728316
W        53.318803713153      -72.043997708583       -8.892540656659
W        56.455203986914      -70.412639838616       -3.354420256655
W        53.318803769598      -64.674135570603       -2.102040154077
W        56.455203836344      -54.876407064645      -10.050360728316
W        53.318803719410      -60.554350020073       -8.892540656659
W        56.455203993170      -58.922992150106       -3.354420256655
W        53.318803612761      -53.184487882092       -2.102040154077
W        56.455203842600      -43.386759376135      -10.050360728316
W        53.318803725666      -49.064702331563       -8.892540656659
W        56.455203836334      -47.433344461596       -3.354420256655
W        53.318803619018      -41.694840193582       -2.102040154077
W        56.455203848857      -31.897111687625      -10.050360728316
W        53.318803731922      -37.575054643052       -8.892540656659
W        56.455203842590      -35.943696773085       -3.354420256655
W        53.318803631546      -30.205192079955       -2.102040154077
W        56.455203855113      -20.407463999114      -10.050360728316
W        53.318803738178      -26.085406954542       -8.892540656659
W        56.455203848846      -24.454049084575       -3.354420256655
W        53.318803637803      -18.715544391444       -2.102040154077
W        56.455203861369       -8.917816310604      -10.050360728316
W        53.318803744434      -14.595759266032       -8.892540656659
W        56.455203855102      -12.964401396065       -3.354420256655
W        53.318803644059       -7.225896702934       -2.102040154077
W        56.455203867625        2.571831377906      -10.050360728316
W        53.318803756963       -3.106111152404       -8.892540656659
W        56.455203861358       -1.474753707554       -3.354420256655
W        53.318803650315        4.263750985576       -2.102040154077
W        56.455203873881       14.061479066417      -10.050360728316
W        53.318803763219        8.383536536106       -8.892540656659
W        56.455203867614       10.014893980956       -3.354420256655
W        53.318803656571       15.753398674087       -2.102040154077
W        56.455203880137       25.551126754927      -10.050360728316
W        53.318803769476       19.873184224616       -8.892540656659
W        56.455203873871       21.504541669467       -3.354420256655
W        53.318803662827       27.243046362597       -2.102040154077
W        56.455203886394       37.040774443437      -10.050360728316
W        53.318803775732       31.362831913127       -8.892540656659
W        56.455203880127       32.994189357977       -3.354420256655
W        53.318803669083       38.732694051107       -2.102040154077
W        56.455203892650       48.530422131948      -10.050360728316
W        53.318803618895       42.852479601637       -8.892540656659
W        56.455203886383       44.483837046487       -3.354420256655
W        53.318803675340       50.222341739618       -2.102040154077
W        56.455203898906       60.020069820458      -10.050360728316
W        53.318803625151       54.342127290147       -8.892540656659
W        56.455203892639       55.973484734998       -3.354420256655
W        53.318803681596       61.711989428128       -2.102040154077
W        56.455203905162       71.509717508969      -10.050360728316
W        53.318803631407       65.831774978658       -8.892540656659
W        56.455203898895       67.463132423508       -3.354420256655
W        53.318803687852       73.201637116638       -2.102040154077
W        56.455203911418       82.999365197479      -10.050360728316
W        53.318803637664       77.321422667168       -8.892540656659
W        56.455203905151       78.952780112018       -3.354420256655
W        53.318803694108       84.691284805149       -2.102040154077
W        56.455203917674       94.489012885989      -10.050360728316
W        53.318803643920       88.811070355678       -8.892540656659
W        56.455203911408       90.442427800529       -3.354420256655
W        53.318803700364       96.180932493659       -2.102040154077
W        56.455203923931      105.978660574500      -10.050360728316
W        53.318803650176      100.300718044189       -8.892540656659
W        56.455203917664      101.932075489039       -3.354420256655
W        53.318803706620      107.670580182169       -2.102040154077
W        56.455203930187      117.468308263010      -10.050360728316
W        53.318803656432      111.790365732699       -8.892540656659
W        56.455203923920      113.421723177549       -3.354420256655
W        53.318803712877      119.160227870680       -2.102040154077
W        56.455203936443      128.957955951520      -10.050360728316
W        53.318803662688      123.280013421210       -8.892540656659
W        56.455203930176      124.911370866060       -3.354420256655
W        53.318803719133      130.649875559190       -2.102040154077
W        56.455203942699      140.447603640031      -10.050360728316
W        53.318803668944      134.769661109720       -8.892540656659
W        56.455203936432      136.401018554570       -3.354420256655
W        53.318803725389      142.139523247700       -2.102040154077
W        56.455203948955      151.937251328541      -10.050360728316
W        53.318803675201      146.259308798230       -8.892540656659
W        56.455203942688      147.890666243080       -3.354420256655
W        53.318803731645      153.629170936211       -2.102040154077
W        56.455203955212      163.426899017051      -10.050360728316
W        53.318803681457      157.748956486741       -8.892540656659
W        56.455203948945      159.380313931591       -3.354420256655
W        53.318803737901      165.118818624721       -2.102040154077
W        56.455203961468      174.916546705562      -10.050360728316
W        53.318803687713      169.238604175251       -8.892540656659
W        56.455203955201      170.869961620101       -3.354420256655
W        53.318803744158      176.608466313232       -2.102040154077
W        56.455203967724      186.406194394072      -10.050360728316
W        53.318803693969      180.728251863761       -8.892540656659
W        56.455203961457      182.359609308611       -3.354420256655
W        53.318803750414      188.098114001742       -2.102040154077
W        56.455203973980      197.895842082582      -10.050360728316
W        53.318803700225      192.217899552272       -8.892540656659
W        56.455203967713      193.849256997122       -3.354420256655
W        53.318803756670      199.587761690252       -2.102040154077
W        56.455203980236      209.385489771093      -10.050360728316
W        53.318803706481      203.707547240782       -8.892540656659
W        56.455203973969      205.338904685632       -3.354420256655
W        53.318803762926      211.077409378763       -2.102040154077
W        62.728004271176     -204.241827440397      -10.050360728316
W        59.591604160514     -209.919769970708       -8.892540656659
W        62.728004264909     -208.288412525858       -3.354420256655
W        59.591604053866     -202.549907832727       -2.102040154077
W        62.728004277432     -192.752179751887      -10.050360728316
W        59.591604166770     -198.430122282197       -8.892540656659
W        62.728004271165     -196.798764837347       -3.354420256655
W        59.591604060122     -191.060260144217       -2.102040154077
W        62.728004283688     -181.262532063376      -10.050360728316
W        59.591604173026     -186.940474593687       -8.892540656659
W        62.728004283694     -185.309116723720       -3.354420256655
W        59.591604066378     -179.570612455706       -2.102040154077
W        62.728004289944     -169.772884374866      -10.050360728316
W        59.591604179283     -175.450826905177       -8.892540656659
W        62.728004289950     -173.819469035209       -3.354420256655
W        59.591604072634     -168.080964767196       -2.102040154077
W        62.728004296201     -158.283236686355      -10.050360728316
W        59.591604185539     -163.961179216666       -8.892540656659
W        62.728004296206     -162.329821346699       -3.354420256655
W        59.591604078890     -156.591317078686       -2.102040154077
W        62.728004302457     -146.793588997845      -10.050360728316
W        59.591604191795     -152.471531528156       -8.892540656659
W        62.728004302463     -150.840173658189       -3.354420256655
W        59.591604085147     -145.101669390175       -2.102040154077
W        62.728004308713     -135.303941309335      -10.050360728316
W        59.591604198051     -140.981883839646       -8.892540656659
W        62.728004308719     -139.350525969678       -3.354420256655
W        59.591604091403     -133.612021701665       -2.102040154077
W        62.728004314969     -123.814293620824      -10.050360728316
W        59.591604204307     -129.492236151135       -8.892540656659
W        62.728004314975     -127.860878281168       -3.354420256655
W        59.591604097659     -122.122374013155       -2.102040154077
W        62.728004321225     -112.324645932314      -10.050360728316
W        59.591604047471     -118.002588462625       -8.892540656659
W        62.728004321231     -116.371230592658       -3.354420256655
W        59.591604103915     -110.632726324644       -2.102040154077
W        62.728004327481     -100.834998243804      -10.050360728316
W        59.591604053727     -106.512940774114       -8.892540656659
W        62.728004327487     -104.881582904147       -3.354420256655
W        59.591604110171      -99.143078636134       -2.102040154077
W        62.728004333738      -89.345350555293      -10.050360728316
W        59.591604059983      -95.023293085604       -8.892540656659
W        62.728004333743      -93.391935215637       -3.354420256655
W        59.591604116427      -87.653430947624       -2.102040154077
W        62.728004346267      -77.855702441666      -10.050360728316
W        59.591604066239      -83.533645397094       -8.892540656659
W        62.728004340000      -81.902287527127       -3.354420256655
W        59.591604122684      -76.163783259113       -2.102040154077
W        62.728004352523      -66.366054753156      -10.050360728316
W        59.591604072495      -72.043997708583       -8.892540656659
W        62.728004346256      -70.412639838616       -3.354420256655
W        59.591604128940      -64.674135570603       -2.102040154077
W        62.728004358779      -54.876407064645      -10.050360728316
W        59.591604078751      -60.554350020073       -8.892540656659
W        62.728004352512      -58.922992150106       -3.354420256655
W        59.591604135196      -53.184487882092       -2.102040154077
W        62.728004365035      -43.386759376135      -10.050360728316
W        59.591604085008      -49.064702331563       -8.892540656659
W        62.728004358768      -47.433344461596       -3.354420256655
W        59.591604141452      -41.694840193582       -2.102040154077
W        62.728004371291      -31.897111687625      -10.050360728316
W        59.591604091264      -37.575054643052       -8.892540656659
W        62.728004365024      -35.943696773085       -3.354420256655
W        59.591604153981      -30.205192079955       -2.102040154077
W        62.728004377547      -20.407463999114      -10.050360728316
W        59.591604097520      -26.085406954542       -8.892540656659
W        62.728004371280      -24.454049084575       -3.354420256655
W        59.591604160237      -18.715544391444       -2.102040154077
W        62.728004383804       -8.917816310604      -10.050360728316
W        59.591604103776      -14.595759266032       -8.892540656659
W        62.728004377537      -12.964401396065       -3.354420256655
W        59.591604166493       -7.225896702934       -2.102040154077
W        62.728004390060        2.571831377906      -10.050360728316
W        59.591604116305       -3.106111152404       -8.892540656659
W        62.728004383793       -1.474753707554       -3.354420256655
W        59.591604172750        4.263750985576       -2.102040154077
W        62.728004396316       14.061479066417      -10.050360728316
W        59.591604122561        8.383536536106       -8.892540656659
W        62.728004390049       10.014893980956       -3.354420256655
W        59.591604179006       15.753398674087       -2.102040154077
W        62.728004402572       25.551126754927      -10.050360728316
W        59.591604128817       19.873184224616       -8.892540656659
W        62.728004396305       21.504541669467       -3.354420256655
W        59.591604185262       27.243046362597       -2.102040154077
W        62.728004408828       37.040774443437      -10.050360728316
W        59.591604135074       31.362831913127       -8.892540656659
W        62.728004402561       32.994189357977       -3.354420256655
W        59.591604191518       38.732694051107       -2.102040154077
W        62.728004415084       48.530422131948      -10.050360728316
W        59.591604141330       42.852479601637       -8.892540656659
W        62.728004408817       44.483837046487       -3.354420256655
W        59.591604197774       50.222341739618       -2.102040154077
W        62.728004421341       60.020069820458      -10.050360728316
W        59.591604147586       54.342127290147       -8.892540656659
W        62.728004415074       55.973484734998       -3.354420256655
W        59.591604204030       61.711989428128       -2.102040154077
W        62.728004427597       71.509717508969      -10.050360728316
W        59.591604153842       65.831774978658       -8.892540656659
W        62.728004421330       67.463132423508       -3.354420256655
W        59.591604210287       73.201637116638       -2.102040154077
W        62.728004270760       82.999365197479      -10.050360728316
W        59.591604160098       77.321422667168       -8.892540656659
W        62.728004264493       78.952780112018       -3.354420256655
W        59.591604053450       84.691284805149       -2.102040154077
W        62.728004277016       94.489012885989      -10.050360728316
W        59.591604166354       88.811070355678       -8.892540656659
W        62.728004270749       90.442427800529       -3.354420256655
W        59.591604059706       96.180932493659       -2.102040154077
W        62.728004283272      105.978660574500      -10.050360728316
W        59.591604172611      100.300718044189       -8.892540656659
W        62.728004277005      101.932075489039       -3.354420256655
W        59.591604065962      107.670580182169       -2.102040154077
W        62.728004289529      117.468308263010      -10.050360728316
W        59.591604178867      111.790365732699       -8.892540656659
W        62.728004283262      113.421723177549       -3.354420256655
W        59.591604072218      119.160227870680       -2.102040154077
W        62.728004295785      128.957955951520      -10.050360728316
W        59.591604185123      123.280013421210       -8.892540656659
W        62.728004289518      124.911370866060       -3.354420256655
W        59.591604078475      130.649875559190       -2.102040154077
W        62.728004302041      140.447603640031      -10.050360728316
W        59.591604191379      134.769661109720       -8.892540656659
W        62.728004295774      136.401018554570       -3.354420256655
W        59.591604084731      142.139523247700       -2.102040154077
W        62.728004308297      151.937251328541      -10.050360728316
W        59.591604197635      146.259308798230       -8.892540656659
W        62.728004302030      147.890666243080       -3.354420256655
W        59.591604090987      153.629170936211       -2.102040154077
W        62.728004314553      163.426899017051      -10.050360728316
W        59.591604203891      157.748956486741       -8.892540656659
W        62.728004308286      159.380313931591       -3.354420256655
W        59.591604097243      165.118818624721       -2.102040154077
W        62.728004320809      174.916546705562      -10.050360728316
W        59.591604210148      169.238604175251       -8.892540656659
W        62.728004314543      170.869961620101       -3.354420256655
W        59.591604103499      176.608466313232       -2.102040154077
W        62.728004327066      186.406194394072      -10.050360728316
W        59.591604053311      180.728251863761       -8.892540656659
W        62.728004320799      182.359609308611       -3.354420256655
W        59.591604109755      188.098114001742       -2.102040154077
W        62.728004333322      197.895842082582      -10.050360728316
W        59.591604059567      192.217899552272       -8.892540656659
W        62.728004327055      193.849256997122       -3.354420256655
W        59.591604116012      199.587761690252       -2.102040154077
W        62.728004339578      209.385489771093      -10.050360728316
W        59.591604065823      203.707547240782       -8.892540656659
W        62.728004333311      205.338904685632       -3.354420256655
W        59.591604122268      211.077409378763       -2.102040154077
W        69.000804793610     -204.241827440397      -10.050360728316
W        65.864404519856     -209.919769970708       -8.892540656659
W        69.000804787344     -208.288412525858       -3.354420256655
W        65.864404576300     -202.549907832727       -2.102040154077
W        69.000804799867     -192.752179751887      -10.050360728316
W        65.864404526112     -198.430122282197       -8.892540656659
W        69.000804793600     -196.798764837347       -3.354420256655
W        65.864404582557     -191.060260144217       -2.102040154077
W        69.000804806123     -181.262532063376      -10.050360728316
W        65.864404532368     -186.940474593687       -8.892540656659
W        69.000804806129     -185.309116723720       -3.354420256655
W        65.864404588813     -179.570612455706       -2.102040154077
W        69.000804812379     -169.772884374866      -10.050360728316
W        65.864404538624     -175.450826905177       -8.892540656659
W        69.000804812385     -173.819469035209       -3.354420256655
W        65.864404595069     -168.080964767196       -2.102040154077
W        69.000804818635     -158.283236686355      -10.050360728316
W        65.864404544880     -163.961179216666       -8.892540656659
W        69.000804818641     -162.329821346699       -3.354420256655
W        65.864404601325     -156.591317078686       -2.102040154077
W        69.000804824891     -146.793588997845      -10.050360728316
W        65.864404551137     -152.471531528156       -8.892540656659
W        69.000804824897     -150.840173658189       -3.354420256655
W        65.864404607581     -145.101669390175       -2.102040154077
W        69.000804831147     -135.303941309335      -10.050360728316
W        65.864404557393     -140.981883839646       -8.892540656659
W        69.000804831153     -139.350525969678       -3.354420256655
W        65.864404613837     -133.612021701665       -2.102040154077
W        69.000804837404     -123.814293620824      -10.050360728316
W        65.864404563649     -129.492236151135       -8.892540656659
W        69.000804837410     -127.860878281168       -3.354420256655
W        65.864404620094     -122.122374013155       -2.102040154077
W        69.000804843660     -112.324645932314      -10.050360728316
W        65.864404569905     -118.002588462625       -8.892540656659
W        69.000804843666     -116.371230592658       -3.354420256655
W        65.864404626350     -110.632726324644       -2.102040154077
W        69.000804849916     -100.834998243804      -10.050360728316
W        65.864404576161     -106.512940774114       -8.892540656659
W        69.000804849922     -104.881582904147       -3.354420256655
W        65.864404632606      -99.143078636134       -2.102040154077
W        69.000804856172      -89.345350555293      -10.050360728316
W        65.864404582417      -95.023293085604       -8.892540656659
W        69.000804856178      -93.391935215637       -3.354420256655
W        65.864404638862      -87.653430947624       -2.102040154077
W        69.000804705608      -77.855702441666      -10.050360728316
W        65.864404588674      -83.533645397094       -8.892540656659
W        69.000804862434      -81.902287527127       -3.354420256655
W        65.864404482025      -76.163783259113       -2.102040154077
W        69.000804711864      -66.366054753156      -10.050360728316
W        65.864404594930      -72.043997708583       -8.892540656659
W        69.000804705598      -70.412639838616       -3.354420256655
W        65.864404488282      -64.674135570603       -2.102040154077
W        69.000804718121      -54.876407064645      -10.050360728316
W        65.864404601186      -60.554350020073       -8.892540656659
W        69.000804711854      -58.922992150106       -3.354420256655
W        65.864404494538      -53.184487882092       -2.102040154077
W        69.000804724377      -43.386759376135      -10.050360728316
W        65.864404607442      -49.064702331563       -8.892540656659
W        69.000804718110      -47.433344461596       -3.354420256655
W        65.864404500794      -41.694840193582       -2.102040154077
W        69.000804730633      -31.897111687625      -10.050360728316
W        65.864404613698      -37.575054643052       -8.892540656659
W        69.000804724366      -35.943696773085       -3.354420256655
W        65.864404513323      -30.205192079955       -2.102040154077
W        69.000804736889      -20.407463999114      -10.050360728316
W        65.864404619954      -26.085406954542       -8.892540656659
W        69.000804730622      -24.454049084575       -3.354420256655
W        65.864404519579      -18.715544391444       -2.102040154077
W        69.000804743145       -8.917816310604      -10.050360728316
W        65.864404626211      -14.595759266032       -8.892540656659
W        69.000804736878      -12.964401396065       -3.354420256655
W        65.864404525835       -7.225896702934       -2.102040154077
W        69.000804749401        2.571831377906      -10.050360728316
W        65.864404638740       -3.106111152404       -8.892540656659
W        69.000804743135       -1.474753707554       -3.354420256655
W        65.864404532091        4.263750985576       -2.102040154077
W        69.000804755658       14.061479066417      -10.050360728316
W        65.864404644996        8.383536536106       -8.892540656659
W        69.000804749391       10.014893980956       -3.354420256655
W        65.864404538348       15.753398674087       -2.102040154077
W        69.000804761914       25.551126754927      -10.050360728316
W        65.864404488159       19.873184224616       -8.892540656659
W        69.000804755647       21.504541669467       -3.354420256655
W        65.864404544604       27.243046362597       -2.102040154077
W        69.000804768170       37.040774443437      -10.050360728316
W        65.864404494415       31.362831913127       -8.892540656659
W        69.000804761903       32.994189357977       -3.354420256655
W        65.864404550860       38.732694051107       -2.102040154077
W        69.000804774426       48.530422131948      -10.050360728316
W        65.864404500672       42.852479601637       -8.892540656659
W        69.000804768159       44.483837046487       -3.354420256655
W        65.864404557116       50.222341739618       -2.102040154077
W        69.000804780682       60.020069820458      -10.050360728316
W        65.864404506928       54.342127290147       -8.892540656659
W        69.000804774415       55.973484734998       -3.354420256655
W        65.864404563372       61.711989428128       -2.102040154077
W        69.000804786939       71.509717508969      -10.050360728316
W        65.864404513184       65.831774978658       -8.892540656659
W        69.000804780672       67.463132423508       -3.354420256655
W        65.864404569628       73.201637116638       -2.102040154077
W        69.000804793195       82.999365197479      -10.050360728316
W        65.864404519440       77.321422667168       -8.892540656659
W        69.000804786928       78.952780112018       -3.354420256655
W        65.864404575885       84.691284805149       -2.102040154077
W        69.000804799451       94.489012885989      -10.050360728316
W        65.864404525696       88.811070355678       -8.892540656659
W        69.000804793184       90.442427800529       -3.354420256655
W        65.864404582141       96.180932493659       -2.102040154077
W        69.000804805707      105.978660574500      -10.050360728316
W        65.864404531952      100.300718044189       -8.892540656659
W        69.000804799440      101.932075489039       -3.354420256655
W        65.864404588397      107.670580182169       -2.102040154077
W        69.000804811963      117.468308263010      -10.050360728316
W        65.864404538209      111.790365732699       -8.892540656659
W        69.000804805696      113.421723177549       -3.354420256655
W        65.864404594653      119.160227870680       -2.102040154077
W        69.000804818219      128.957955951520      -10.050360728316
W        65.864404544465      123.280013421210       -8.892540656659
W        69.000804811952      124.911370866060       -3.354420256655
W        65.864404600909      130.649875559190       -2.102040154077
W        69.000804824476      140.447603640031      -10.050360728316
W        65.864404550721      134.769661109720       -8.892540656659
W        69.000804818209      136.401018554570       -3.354420256655
W        65.864404607165      142.139523247700       -2.102040154077
W        69.000804830732      151.937251328541      -10.050360728316
W        65.864404556977      146.259308798230       -8.892540656659
W        69.000804824465      147.890666243080       -3.354420256655
W        65.864404613422      153.629170936211       -2.102040154077
W        69.000804836988      163.426899017051      -10.050360728316
W        65.864404563233      157.748956486741       -8.892540656659
W        69.000804830721      159.380313931591       -3.354420256655
W        65.864404619678      165.118818624721       -2.102040154077
W        69.000804843244      174.916546705562      -10.050360728316
W        65.864404569489      169.238604175251       -8.892540656659
W        69.000804836977      170.869961620101       -3.354420256655
W        65.864404625934      176.608466313232       -2.102040154077
W        69.000804849500      186.406194394072      -10.050360728316
W        65.864404575745      180.728251863761       -8.892540656659
W        69.000804843233      182.359609308611       -3.354420256655
W        65.864404632190      188.098114001742       -2.102040154077
W        69.000804855756      197.895842082582      -10.050360728316
W        65.864404582002      192.217899552272       -8.892540656659
W        69.000804849489      193.849256997122       -3.354420256655
W        65.864404638446      199.587761690252       -2.102040154077
W        69.000804698920      209.385489771093      -10.050360728316
W        65.864404588258      203.707547240782       -8.892540656659
W        69.000804855746      205.338904685632       -3.354420256655
W        65.864404481610      211.077409378763       -2.102040154077
W        75.273605152952     -204.241827440397      -10.050360728316
W        72.137205042290     -209.919769970708       -8.892540656659
W        75.273605146685     -208.288412525858       -3.354420256655
W        72.137204935642     -202.549907832727       -2.102040154077
W        75.273605159208     -192.752179751887      -10.050360728316
W        72.137205048547     -198.430122282197       -8.892540656659
W        75.273605152941     -196.798764837347       -3.354420256655
W        72.137204941898     -191.060260144217       -2.102040154077
W        75.273605165465     -181.262532063376      -10.050360728316
W        72.137205054803     -186.940474593687       -8.892540656659
W        75.273605165470     -185.309116723720       -3.354420256655
W        72.137204948154     -179.570612455706       -2.102040154077
W        75.273605171721     -169.772884374866      -10.050360728316
W        72.137205061059     -175.450826905177       -8.892540656659
W        75.273605171727     -173.819469035209       -3.354420256655
W        72.137204954411     -168.080964767196       -2.102040154077
W        75.273605177977     -158.283236686355      -10.050360728316
W        72.137205067315     -163.961179216666       -8.892540656659
W        75.273605177983     -162.329821346699       -3.354420256655
W        72.137204960667     -156.591317078686       -2.102040154077
W        75.273605184233     -146.793588997845      -10.050360728316
W        72.137205073571     -152.471531528156       -8.892540656659
W        75.273605184239     -150.840173658189       -3.354420256655
W        72.137204966923     -145.101669390175       -2.102040154077
W        75.273605190489     -135.303941309335      -10.050360728316
W        72.137204916735     -140.981883839646       -8.892540656659
W        75.273605190495     -139.350525969678       -3.354420256655
W        72.137204973179     -133.612021701665       -2.102040154077
W        75.273605196745     -123.814293620824      -10.050360728316
W        72.137204922991     -129.492236151135       -8.892540656659
W        75.273605196751     -127.860878281168       -3.354420256655
W        72.137204979435     -122.122374013155       -2.102040154077
W        75.273605203002     -112.324645932314      -10.050360728316
W        72.137204929247     -118.002588462625       -8.892540656659
W        75.273605203007     -116.371230592658       -3.354420256655
W        72.137204985691     -110.632726324644       -2.102040154077
W        75.273605209258     -100.834998243804      -10.050360728316
W        72.137204935503     -106.512940774114       -8.892540656659
W        75.273605209264     -104.881582904147       -3.354420256655
W        72.137204991948      -99.143078636134       -2.102040154077
W        75.273605215514      -89.345350555293      -10.050360728316
W        72.137204941759      -95.023293085604       -8.892540656659
W        75.273605215520      -93.391935215637       -3.354420256655
W        72.137204998204      -87.653430947624       -2.102040154077
W        75.273605228043      -77.855702441666      -10.050360728316
W        72.137204948015      -83.533645397094       -8.892540656659
W        75.273605221776      -81.902287527127       -3.354420256655
W        72.137205004460      -76.163783259113       -2.102040154077
W        75.273605234299      -66.366054753156      -10.050360728316
W        72.137204954272      -72.043997708583       -8.892540656659
W        75.273605228032      -70.412639838616       -3.354420256655
W        72.137205010716      -64.674135570603       -2.102040154077
W        75.273605240555      -54.876407064645      -10.050360728316
W        72.137204960528      -60.554350020073       -8.892540656659
W        75.273605234288      -58.922992150106       -3.354420256655
W        72.137205016972      -53.184487882092       -2.102040154077
W        75.273605246811      -43.386759376135      -10.050360728316
W        72.137204966784      -49.064702331563       -8.892540656659
W        75.273605240544      -47.433344461596       -3.354420256655
W        72.137205023228      -41.694840193582       -2.102040154077
W        75.273605253068      -31.897111687625      -10.050360728316
W        72.137204973040      -37.575054643052       -8.892540656659
W        75.273605246801      -35.943696773085       -3.354420256655
W        72.137205035757      -30.205192079955       -2.102040154077
W        75.273605259324      -20.407463999114      -10.050360728316
W        72.137204979296      -26.085406954542       -8.892540656659
W        75.273605253057      -24.454049084575       -3.354420256655
W        72.137205042014      -18.715544391444       -2.102040154077
W        75.273605265580       -8.917816310604      -10.050360728316
W        72.137204985552      -14.595759266032       -8.892540656659
W        75.273605259313      -12.964401396065       -3.354420256655
W        72.137205048270       -7.225896702934       -2.102040154077
W        75.273605271836        2.571831377906      -10.050360728316
W        72.137204998081       -3.106111152404       -8.892540656659
W        75.273605265569       -1.474753707554       -3.354420256655
W        72.137205054526        4.263750985576       -2.102040154077
W        75.273605278092       14.061479066417      -10.050360728316
W        72.137205004338        8.383536536106       -8.892540656659
W        75.273605271825       10.014893980956       -3.354420256655
W        72.137205060782       15.753398674087       -2.102040154077
W        75.273605284348       25.551126754927      -10.050360728316
W        72.137205010594       19.873184224616       -8.892540656659
W        75.273605278081       21.504541669467       -3.354420256655
W        72.137205067038       27.243046362597       -2.102040154077
W        75.273605290605       37.040774443437      -10.050360728316
W        72.137205016850       31.362831913127       -8.892540656659
W        75.273605284338       32.994189357977       -3.354420256655
W        72.137205073294       38.732694051107       -2.102040154077
W        75.273605296861       48.530422131948      -10.050360728316
W        72.137205023106       42.852479601637       -8.892540656659
W        75.273605290594       44.483837046487       -3.354420256655
W        72.137205079551       50.222341739618       -2.102040154077
W        75.273605140024       60.020069820458      -10.050360728316
W        72.137205029362       54.342127290147       -8.892540656659
W        75.273605133757       55.973484734998       -3.354420256655
W        72.137204922714       61.711989428128       -2.102040154077
W        75.273605146280       71.509717508969      -10.050360728316
W        72.137205035618       65.831774978658       -8.892540656659
W        75.273605140013       67.463132423508       -3.354420256655
W        72.137204928970       73.201637116638       -2.102040154077
W        75.273605152536       82.999365197479      -10.050360728316
W        72.137205041875       77.321422667168       -8.892540656659
W        75.273605146270       78.952780112018       -3.354420256655
W        72.137204935226       84.691284805149       -2.102040154077
W        75.273605158793       94.489012885989      -10.050360728316
W        72.137205048131       88.811070355678       -8.892540656659
W        75.273605152526       90.442427800529       -3.354420256655
W        72.137204941482       96.180932493659       -2.102040154077
W        75.273605165049      105.978660574500      -10.050360728316
W        72.137205054387      100.300718044189       -8.892540656659
W        75.273605158782      101.932075489039       -3.354420256655
W        72.137204947739      107.670580182169       -2.102040154077
W        75.273605171305      117.468308263010      -10.050360728316
W        72.137205060643      111.790365732699       -8.892540656659
W        75.273605165038      113.421723177549       -3.354420256655
W        72.137204953995      119.160227870680       -2.102040154077
W        75.273605177561      128.957955951520      -10.050360728316
W        72.137205066899      123.280013421210       -8.892540656659
W        75.273605171294      124.911370866060       -3.354420256655
W        72.137204960251      130.649875559190       -2.102040154077
W        75.273605183817      140.447603640031      -10.050360728316
W        72.137205073155      134.769661109720       -8.892540656659
W        75.273605177550      136.401018554570       -3.354420256655
W        72.137204966507      142.139523247700       -2.102040154077
W        75.273605190073      151.937251328541      -10.050360728316
W        72.137205079412      146.259308798230       -8.892540656659
W        75.273605183807      147.890666243080       -3.354420256655
W        72.137204972763      153.629170936211       -2.102040154077
W        75.273605196330      163.426899017051      -10.050360728316
W        72.137204922575      157.748956486741       -8.892540656659
W        75.273605190063      159.380313931591       -3.354420256655
W        72.137204979020      165.118818624721       -2.102040154077
W        75.273605202586      174.916546705562      -10.050360728316
W        72.137204928831      169.238604175251       -8.892540656659
W        75.273605196319      170.869961620101       -3.354420256655
W        72.137204985276      176.608466313232       -2.102040154077
W        75.273605208842      186.406194394072      -10.050360728316
W        72.137204935087      180.728251863761       -8.892540656659
W        75.273605202575      182.359609308611       -3.354420256655
W        72.137204991532      188.098114001742       -2.102040154077
W        75.273605215098      197.895842082582      -10.050360728316
W        72.137204941343      192.217899552272       -8.892540656659
W        75.273605208831      193.849256997122       -3.354420256655
W        72.137204997788      199.587761690252       -2.102040154077
W        75.273605221354      209.385489771093      -10.050360728316
W        72.137204947600      203.707547240782       -8.892540656659
W        75.273605215087      205.338904685632       -3.354420256655
W        72.137205004044      211.077409378763       -2.102040154077
W       -81.546405618357     -192.752179751887      -10.050360728316
W        78.410005407888     -198.430122282197       -8.892540656659
W       -81.546405624624     -196.798764837347       -3.354420256655
W        78.410005464333     -191.060260144217       -2.102040154077
W       -81.546405612101     -181.262532063376      -10.050360728316
W        78.410005414144     -186.940474593687       -8.892540656659
W       -81.546405612095     -185.309116723720       -3.354420256655
W        78.410005470589     -179.570612455706       -2.102040154077
W       -81.546405605845     -169.772884374866      -10.050360728316
W        78.410005420401     -175.450826905177       -8.892540656659
W       -81.546405605839     -173.819469035209       -3.354420256655
W        78.410005476845     -168.080964767196       -2.102040154077
W       -81.546405599588     -158.283236686355      -10.050360728316
W        78.410005426657     -163.961179216666       -8.892540656659
W       -81.546405599583     -162.329821346699       -3.354420256655
W        78.410005483101     -156.591317078686       -2.102040154077
W       -81.546405593332     -146.793588997845      -10.050360728316
W        78.410005432913     -152.471531528156       -8.892540656659
W       -81.546405593326     -150.840173658189       -3.354420256655
W        78.410005489358     -145.101669390175       -2.102040154077
W       -81.546405587076     -135.303941309335      -10.050360728316
W        78.410005439169     -140.981883839646       -8.892540656659
W       -81.546405587070     -139.350525969678       -3.354420256655
W        78.410005495614     -133.612021701665       -2.102040154077
W       -81.546405580820     -123.814293620824      -10.050360728316
W        78.410005445425     -129.492236151135       -8.892540656659
W       -81.546405580814     -127.860878281168       -3.354420256655
W        78.410005501870     -122.122374013155       -2.102040154077
W       -81.546405574564     -112.324645932314      -10.050360728316
W        78.410005451682     -118.002588462625       -8.892540656659
W       -81.546405574558     -116.371230592658       -3.354420256655
W        78.410005508126     -110.632726324644       -2.102040154077
W       -81.546405731400     -100.834998243804      -10.050360728316
W        78.410005457938     -106.512940774114       -8.892540656659
W       -81.546405568302     -104.881582904147       -3.354420256655
W        78.410005351289      -99.143078636134       -2.102040154077
W       -81.546405725144      -89.345350555293      -10.050360728316
W        78.410005464194      -95.023293085604       -8.892540656659
W       -81.546405725138      -93.391935215637       -3.354420256655
W        78.410005357546      -87.653430947624       -2.102040154077
W       -81.546405712615      -77.855702441666      -10.050360728316
W        78.410005470450      -83.533645397094       -8.892540656659
W       -81.546405718882      -81.902287527127       -3.354420256655
W        78.410005363802      -76.163783259113       -2.102040154077
W       -81.546405706359      -66.366054753156      -10.050360728316
W        78.410005476706      -72.043997708583       -8.892540656659
W       -81.546405712626      -70.412639838616       -3.354420256655
W        78.410005370058      -64.674135570603       -2.102040154077
W       -81.546405700103      -54.876407064645      -10.050360728316
W        78.410005482962      -60.554350020073       -8.892540656659
W       -81.546405706370      -58.922992150106       -3.354420256655
W        78.410005376314      -53.184487882092       -2.102040154077
W       -81.546405693847      -43.386759376135      -10.050360728316
W        78.410005489219      -49.064702331563       -8.892540656659
W       -81.546405700114      -47.433344461596       -3.354420256655
W        78.410005382570      -41.694840193582       -2.102040154077
W       -81.546405687591      -31.897111687625      -10.050360728316
W        78.410005495475      -37.575054643052       -8.892540656659
W       -81.546405693858      -35.943696773085       -3.354420256655
W        78.410005395099      -30.205192079955       -2.102040154077
W       -81.546405681334      -20.407463999114      -10.050360728316
W        78.410005501731      -26.085406954542       -8.892540656659
W       -81.546405687601      -24.454049084575       -3.354420256655
W        78.410005401355      -18.715544391444       -2.102040154077
W       -81.546405675078       -8.917816310604      -10.050360728316
W        78.410005507987      -14.595759266032       -8.892540656659
W       -81.546405681345      -12.964401396065       -3.354420256655
W        78.410005407612       -7.225896702934       -2.102040154077
W        81.546405631178        2.571831377906      -10.050360728316
W        78.410005357423       -3.106111152404       -8.892540656659
W       -81.546405675089       -1.474753707554       -3.354420256655
W        78.410005413868        4.263750985576       -2.102040154077
W        81.546405637434       14.061479066417      -10.050360728316
W        78.410005363679        8.383536536106       -8.892540656659
W        81.546405631167       10.014893980956       -3.354420256655
W        78.410005420124       15.753398674087       -2.102040154077
W        81.546405643690       25.551126754927      -10.050360728316
W        78.410005369936       19.873184224616       -8.892540656659
W        81.546405637423       21.504541669467       -3.354420256655
W        78.410005426380       27.243046362597       -2.102040154077
W        81.546405649946       37.040774443437      -10.050360728316
W        78.410005376192       31.362831913127       -8.892540656659
W        81.546405643679       32.994189357977       -3.354420256655
W        78.410005432636       38.732694051107       -2.102040154077
W        81.546405656203       48.530422131948      -10.050360728316
W        78.410005382448       42.852479601637       -8.892540656659
W        81.546405649936       44.483837046487       -3.354420256655
W        78.410005438892       50.222341739618       -2.102040154077
W        81.546405662459       60.020069820458      -10.050360728316
W        78.410005388704       54.342127290147       -8.892540656659
W        81.546405656192       55.973484734998       -3.354420256655
W        78.410005445149       61.711989428128       -2.102040154077
W        81.546405668715       71.509717508969      -10.050360728316
W        78.410005394960       65.831774978658       -8.892540656659
W        81.546405662448       67.463132423508       -3.354420256655
W        78.410005451405       73.201637116638       -2.102040154077
W        81.546405674971       82.999365197479      -10.050360728316
W        78.410005401216       77.321422667168       -8.892540656659
W        81.546405668704       78.952780112018       -3.354420256655
W        78.410005457661       84.691284805149       -2.102040154077
W        81.546405681227       94.489012885989      -10.050360728316
W        78.410005407473       88.811070355678       -8.892540656659
W        81.546405674960       90.442427800529       -3.354420256655
W        78.410005463917       96.180932493659       -2.102040154077
W        81.546405687483      105.978660574500      -10.050360728316
W        78.410005413729      100.300718044189       -8.892540656659
W        81.546405681216      101.932075489039       -3.354420256655
W        78.410005470173      107.670580182169       -2.102040154077
W        81.546405693740      117.468308263010      -10.050360728316
W        78.410005419985      111.790365732699       -8.892540656659
W        81.546405687473      113.421723177549       -3.354420256655
W        78.410005476429      119.160227870680       -2.102040154077
W        81.546405699996      128.957955951520      -10.050360728316
W        78.410005426241      123.280013421210       -8.892540656659
W        81.546405693729      124.911370866060       -3.354420256655
W        78.410005482686      130.649875559190       -2.102040154077
W        81.546405706252      140.447603640031      -10.050360728316
W        78.410005432497      134.769661109720       -8.892540656659
W        81.546405699985      136.401018554570       -3.354420256655
W        78.410005488942      142.139523247700       -2.102040154077
W        81.546405712508      151.937251328541      -10.050360728316
W        78.410005438753      146.259308798230       -8.892540656659
W        81.546405706241      147.890666243080       -3.354420256655
W        78.410005495198      153.629170936211       -2.102040154077
W        81.546405718764      163.426899017051      -10.050360728316
W        78.410005445010      157.748956486741       -8.892540656659
W        81.546405712497      159.380313931591       -3.354420256655
W        78.410005501454      165.118818624721       -2.102040154077
W        81.546405725020      174.916546705562      -10.050360728316
W        78.410005451266      169.238604175251       -8.892540656659
W        81.546405718753      170.869961620101       -3.354420256655
W        78.410005507710      176.608466313232       -2.102040154077
W        81.546405568184      186.406194394072      -10.050360728316
W        78.410005457522      180.728251863761       -8.892540656659
W        81.546405725010      182.359609308611       -3.354420256655
W        78.410005350874      188.098114001742       -2.102040154077
W        81.546405574440      197.895842082582      -10.050360728316
W        78.410005463778      192.217899552272       -8.892540656659
W        81.546405568173      193.849256997122       -3.354420256655
W        78.410005357130      199.587761690252       -2.102040154077
W        81.546405580696      209.385489771093      -10.050360728316
W        78.410005470034      203.707547240782       -8.892540656659
W        81.546405574429      205.338904685632       -3.354420256655
W        78.410005363386      211.077409378763       -2.102040154077
W        78.410005376523     -197.826042553232        2.109840145687
W        75.273605228208     -192.240706652322        3.351720234882
W        78.410005432973     -193.819211855627        8.900940635285
W        75.273598980510     -199.684446891813       10.050360728316
W        78.410005382780     -186.336394864722        2.109840145687
W        75.273605234465     -180.751058963811        3.351720234882
W        78.410005439229     -182.329564167117        8.900940635285
W        75.273598986766     -188.194799203303       10.050360728316
W        78.410005389036     -174.846747176212        2.109840145687
W        75.273605240721     -169.261411275301        3.351720234882
W        78.410005445485     -170.839916478607        8.900940635285
W        75.273598993022     -176.705151514793       10.050360728316
W        78.410005395292     -163.357099487701        2.109840145687
W        75.273605246977     -157.771763586791        3.351720234882
W        78.410005451741     -159.350268790096        8.900940635285
W        75.273598999279     -165.215503826282       10.050360728316
W        78.410005401548     -151.867451799191        2.109840145687
W        75.273605253233     -146.282115898280        3.351720234882
W        78.410005457998     -147.860621101586        8.900940635285
W        75.273599005535     -153.725856137772       10.050360728316
W        78.410005407804     -140.377804110681        2.109840145687
W        75.273605265762     -134.792467784653        3.351720234882
W        78.410005464254     -136.370973413076        8.900940635285
W        75.273599011791     -142.236208449262       10.050360728316
W        78.410005414060     -128.888156422170        2.109840145687
W        75.273605272018     -123.302820096142        3.351720234882
W        78.410005470510     -124.881325724565        8.900940635285
W        75.273599018047     -130.746560760751       10.050360728316
W        78.410005420317     -117.398508733660        2.109840145687
W        75.273605278274     -111.813172407632        3.351720234882
W        78.410005476766     -113.391678036055        8.900940635285
W        75.273599024303     -119.256913072241       10.050360728316
W        78.410005426573     -105.908861045150        2.109840145687
W        75.273605284531     -100.323524719122        3.351720234882
W        78.410005483022     -101.902030347545        8.900940635285
W        75.273598867467     -107.767265383731       10.050360728316
W        78.410005432829      -94.419213356639        2.109840145687
W        75.273605290787      -88.833877030611        3.351720234882
W        78.410005495551      -90.412382233917        8.900940635285
W        75.273598873723      -96.277617695220       10.050360728316
W        78.410005439085      -82.929565668129        2.109840145687
W        75.273605297043      -77.344229342101        3.351720234882
W        78.410005501807      -78.922734545407        8.900940635285
W        75.273598879979      -84.787970006710       10.050360728316
W        78.410005445341      -71.439917979619        2.109840145687
W        75.273605140206      -65.854581653591        3.351720234882
W        78.410005508064      -67.433086856897        8.900940635285
W        75.273598886235      -73.298322318199       10.050360728316
W        78.410005451597      -59.950270291108        2.109840145687
W        75.273605146463      -54.364933965080        3.351720234882
W        78.410005514320      -55.943439168386        8.900940635285
W        75.273598892491      -61.808674629689       10.050360728316
W        78.410005457854      -48.460622602598        2.109840145687
W        75.273605152719      -42.875286276570        3.351720234882
W        78.410005357483      -44.453791479876        8.900940635285
W        75.273598898747      -50.319026941179       10.050360728316
W        78.410005464110      -36.970974914088        2.109840145687
W        75.273605158975      -31.385638588060        3.351720234882
W        78.410005363739      -32.964143791366        8.900940635285
W        75.273598905004      -38.829379252668       10.050360728316
W        78.410005470366      -25.481327225577        2.109840145687
W        75.273605165231      -19.895990899549        3.351720234882
W        78.410005369995      -21.474496102855        8.900940635285
W        75.273598911260      -27.339731564158       10.050360728316
W        78.410005476622      -13.991679537067        2.109840145687
W        75.273605171487       -8.406343211039        3.351720234882
W        78.410005376252       -9.984848414345        8.900940635285
W        75.273598917516      -15.850083875648       10.050360728316
W        78.410005482878       -2.502031848556        2.109840145687
W        75.273605177743        3.083304477471        3.351720234882
W        78.410005382508        1.504799274165        8.900940635285
W        75.273598923772       -4.360436187137       10.050360728316
W        78.410005495407        8.987616265071        2.109840145687
W        75.273605184000       14.572952165982        3.351720234882
W        78.410005388764       12.994446962676        8.900940635285
W        75.273598930028        7.129211501373       10.050360728316
W        78.410005501663       20.477263953581        2.109840145687
W        75.273605190256       26.062599854492        3.351720234882
W        78.410005395020       24.484094651186        8.900940635285
W        75.273598936284       18.618859189883       10.050360728316
W        78.410005507920       31.966911642092        2.109840145687
W        75.273605196512       37.552247543002        3.351720234882
W        78.410005401276       35.973742339697        8.900940635285
W        75.273598942541       30.108506878394       10.050360728316
W        78.410005514176       43.456559330602        2.109840145687
W        75.273605202768       49.041895231513        3.351720234882
W        78.410005407532       47.463390028207        8.900940635285
W        75.273598948797       41.598154566904       10.050360728316
W        78.410005357339       54.946207019112        2.109840145687
W        75.273605209024       60.531542920023        3.351720234882
W        78.410005413789       58.953037716717        8.900940635285
W        75.273598955053       53.087802255414       10.050360728316
W        78.410005363595       66.435854707623        2.109840145687
W        75.273605215280       72.021190608533        3.351720234882
W        78.410005420045       70.442685405228        8.900940635285
W        75.273598961309       64.577449943925       10.050360728316
W        78.410005369852       77.925502396133        2.109840145687
W        75.273605221537       83.510838297044        3.351720234882
W        78.410005426301       81.932333093738        8.900940635285
W        75.273598967565       76.067097632435       10.050360728316
W        78.410005376108       89.415150084643        2.109840145687
W        75.273605227793       95.000485985554        3.351720234882
W        78.410005432557       93.421980782248        8.900940635285
W        75.273598973821       87.556745320945       10.050360728316
W        78.410005382364      100.904797773154        2.109840145687
W        75.273605234049      106.490133674065        3.351720234882
W        78.410005438813      104.911628470759        8.900940635285
W        75.273598980078       99.046393009456       10.050360728316
W        78.410005388620      112.394445461664        2.109840145687
W        75.273605240305      117.979781362575        3.351720234882
W        78.410005445069      116.401276159269        8.900940635285
W        75.273598986334      110.536040697966       10.050360728316
W        78.410005394876      123.884093150174        2.109840145687
W        75.273605246561      129.469429051085        3.351720234882
W        78.410005451326      127.890923847779        8.900940635285
W        75.273598992590      122.025688386477       10.050360728316
W        78.410005401132      135.373740838685        2.109840145687
W        75.273605252817      140.959076739596        3.351720234882
W        78.410005457582      139.380571536290        8.900940635285
W        75.273598998846      133.515336074987       10.050360728316
W        78.410005407389      146.863388527195        2.109840145687
W        75.273605259074      152.448724428106        3.351720234882
W        78.410005463838      150.870219224800        8.900940635285
W        75.273599005102      145.004983763497       10.050360728316
W        78.410005413645      158.353036215705        2.109840145687
W        75.273605265330      163.938372116616        3.351720234882
W        78.410005470094      162.359866913310        8.900940635285
W        75.273599011358      156.494631452008       10.050360728316
W        78.410005419901      169.842683904216        2.109840145687
W        75.273605271586      175.428019805127        3.351720234882
W        78.410005476350      173.849514601821        8.900940635285
W        75.273599017615      167.984279140518       10.050360728316
W        78.410005426157      181.332331592726        2.109840145687
W        75.273605277842      186.917667493637        3.351720234882
W        78.410005482606      185.339162290331        8.900940635285
W        75.273598860778      179.473926829028       10.050360728316
W        78.410005432413      192.821979281237        2.109840145687
W        75.273605284098      198.407315182147        3.351720234882
W        78.410005488863      196.828809978842        8.900940635285
W        75.273598867034      190.963574517539       10.050360728316
W        78.410005438669      204.311626969747        2.109840145687
W        75.273605290354      209.896962870658        3.351720234882
W        78.410005495119      208.318457667352        8.900940635285
W        75.273598873290      202.453222206049       10.050360728316
W        72.137205010925     -209.315690241743        2.109840145687
W        69.000804699518     -203.730354340832        3.351720234882
W        72.137205067375     -205.308859544138        8.900940635285
W        69.000798445546     -211.174095005441       10.050360728316
W        72.137205017182     -197.826042553232        2.109840145687
W        69.000804705774     -192.240706652322        3.351720234882
W        72.137205073631     -193.819211855627        8.900940635285
W        69.000798458075     -199.684446891813       10.050360728316
W        72.137205023438     -186.336394864722        2.109840145687
W        69.000804712030     -180.751058963811        3.351720234882
W        72.137204916794     -182.329564167117        8.900940635285
W        69.000798464332     -188.194799203303       10.050360728316
W        72.137205029694     -174.846747176212        2.109840145687
W        69.000804718286     -169.261411275301        3.351720234882
W        72.137204923051     -170.839916478607        8.900940635285
W        69.000798470588     -176.705151514793       10.050360728316
W        72.137205035950     -163.357099487701        2.109840145687
W        69.000804724542     -157.771763586791        3.351720234882
W        72.137204929307     -159.350268790096        8.900940635285
W        69.000798476844     -165.215503826282       10.050360728316
W        72.137205042206     -151.867451799191        2.109840145687
W        69.000804730799     -146.282115898280        3.351720234882
W        72.137204935563     -147.860621101586        8.900940635285
W        69.000798483100     -153.725856137772       10.050360728316
W        72.137205048463     -140.377804110681        2.109840145687
W        69.000804743328     -134.792467784653        3.351720234882
W        72.137204941819     -136.370973413076        8.900940635285
W        69.000798489356     -142.236208449262       10.050360728316
W        72.137205054719     -128.888156422170        2.109840145687
W        69.000804749584     -123.302820096142        3.351720234882
W        72.137204948075     -124.881325724565        8.900940635285
W        69.000798495612     -130.746560760751       10.050360728316
W        72.137205060975     -117.398508733660        2.109840145687
W        69.000804755840     -111.813172407632        3.351720234882
W        72.137204954331     -113.391678036055        8.900940635285
W        69.000798501869     -119.256913072241       10.050360728316
W        72.137205067231     -105.908861045150        2.109840145687
W        69.000804762096     -100.323524719122        3.351720234882
W        72.137204960588     -101.902030347545        8.900940635285
W        69.000798508125     -107.767265383731       10.050360728316
W        72.137205073487      -94.419213356639        2.109840145687
W        69.000804768352      -88.833877030611        3.351720234882
W        72.137204973117      -90.412382233917        8.900940635285
W        69.000798514381      -96.277617695220       10.050360728316
W        72.137204916651      -82.929565668129        2.109840145687
W        69.000804774608      -77.344229342101        3.351720234882
W        72.137204979373      -78.922734545407        8.900940635285
W        69.000798520637      -84.787970006710       10.050360728316
W        72.137204922907      -71.439917979619        2.109840145687
W        69.000804780865      -65.854581653591        3.351720234882
W        72.137204985629      -67.433086856897        8.900940635285
W        69.000798526893      -73.298322318199       10.050360728316
W        72.137204929163      -59.950270291108        2.109840145687
W        69.000804787121      -54.364933965080        3.351720234882
W        72.137204991885      -55.943439168386        8.900940635285
W        69.000798533149      -61.808674629689       10.050360728316
W        72.137204935419      -48.460622602598        2.109840145687
W        69.000804793377      -42.875286276570        3.351720234882
W        72.137204998141      -44.453791479876        8.900940635285
W        69.000798539406      -50.319026941179       10.050360728316
W        72.137204941675      -36.970974914088        2.109840145687
W        69.000804799633      -31.385638588060        3.351720234882
W        72.137205004397      -32.964143791366        8.900940635285
W        69.000798545662      -38.829379252668       10.050360728316
W        72.137204947931      -25.481327225577        2.109840145687
W        69.000804805889      -19.895990899549        3.351720234882
W        72.137205010654      -21.474496102855        8.900940635285
W        69.000798551918      -27.339731564158       10.050360728316
W        72.137204954188      -13.991679537067        2.109840145687
W        69.000804812145       -8.406343211039        3.351720234882
W        72.137205016910       -9.984848414345        8.900940635285
W        69.000798558174      -15.850083875648       10.050360728316
W        72.137204960444       -2.502031848556        2.109840145687
W        69.000804818402        3.083304477471        3.351720234882
W        72.137205023166        1.504799274165        8.900940635285
W        69.000798564430       -4.360436187137       10.050360728316
W        72.137204972973        8.987616265071        2.109840145687
W        69.000804824658       14.572952165982        3.351720234882
W        72.137205029422       12.994446962676        8.900940635285
W        69.000798570686        7.129211501373       10.050360728316
W        72.137204979229       20.477263953581        2.109840145687
W        69.000804830914       26.062599854492        3.351720234882
W        72.137205035678       24.484094651186        8.900940635285
W        69.000798576943       18.618859189883       10.050360728316
W        72.137204985485       31.966911642092        2.109840145687
W        69.000804837170       37.552247543002        3.351720234882
W        72.137205041934       35.973742339697        8.900940635285
W        69.000798583199       30.108506878394       10.050360728316
W        72.137204991741       43.456559330602        2.109840145687
W        69.000804843426       49.041895231513        3.351720234882
W        72.137205048191       47.463390028207        8.900940635285
W        69.000798426362       41.598154566904       10.050360728316
W        72.137204997997       54.946207019112        2.109840145687
W        69.000804849682       60.531542920023        3.351720234882
W        72.137205054447       58.953037716717        8.900940635285
W        69.000798432618       53.087802255414       10.050360728316
W        72.137205004254       66.435854707623        2.109840145687
W        69.000804855939       72.021190608533        3.351720234882
W        72.137205060703       70.442685405228        8.900940635285
W        69.000798438875       64.577449943925       10.050360728316
W        72.137205010510       77.925502396133        2.109840145687
W        69.000804699102       83.510838297044        3.351720234882
W        72.137205066959       81.932333093738        8.900940635285
W        69.000798445131       76.067097632435       10.050360728316
W        72.137205016766       89.415150084643        2.109840145687
W        69.000804705358       95.000485985554        3.351720234882
W        72.137205073215       93.421980782248        8.900940635285
W        69.000798451387       87.556745320945       10.050360728316
W        72.137205023022      100.904797773154        2.109840145687
W        69.000804711614      106.490133674065        3.351720234882
W        72.137205079471      104.911628470759        8.900940635285
W        69.000798457643       99.046393009456       10.050360728316
W        72.137205029278      112.394445461664        2.109840145687
W        69.000804717870      117.979781362575        3.351720234882
W        72.137204922635      116.401276159269        8.900940635285
W        69.000798463899      110.536040697966       10.050360728316
W        72.137205035534      123.884093150174        2.109840145687
W        69.000804724127      129.469429051085        3.351720234882
W        72.137204928891      127.890923847779        8.900940635285
W        69.000798470155      122.025688386477       10.050360728316
W        72.137205041791      135.373740838685        2.109840145687
W        69.000804730383      140.959076739596        3.351720234882
W        72.137204935147      139.380571536290        8.900940635285
W        69.000798476412      133.515336074987       10.050360728316
W        72.137205048047      146.863388527195        2.109840145687
W        69.000804736639      152.448724428106        3.351720234882
W        72.137204941403      150.870219224800        8.900940635285
W        69.000798482668      145.004983763497       10.050360728316
W        72.137205054303      158.353036215705        2.109840145687
W        69.000804742895      163.938372116616        3.351720234882
W        72.137204947659      162.359866913310        8.900940635285
W        69.000798488924      156.494631452008       10.050360728316
W        72.137205060559      169.842683904216        2.109840145687
W        69.000804749151      175.428019805127        3.351720234882
W        72.137204953916      173.849514601821        8.900940635285
W        69.000798495180      167.984279140518       10.050360728316
W        72.137205066815      181.332331592726        2.109840145687
W        69.000804755407      186.917667493637        3.351720234882
W        72.137204960172      185.339162290331        8.900940635285
W        69.000798501436      179.473926829028       10.050360728316
W        72.137205073071      192.821979281237        2.109840145687
W        69.000804761664      198.407315182147        3.351720234882
W        72.137204966428      196.828809978842        8.900940635285
W        69.000798507692      190.963574517539       10.050360728316
W        72.137205079328      204.311626969747        2.109840145687
W        69.000804767920      209.896962870658        3.351720234882
W        72.137204972684      208.318457667352        8.900940635285
W        69.000798513949      202.453222206049       10.050360728316
W        65.864404488491     -209.315690241743        2.109840145687
W        62.728004340176     -203.730354340832        3.351720234882
W        65.864404544940     -205.308859544138        8.900940635285
W        62.727998086205     -211.174095005441       10.050360728316
W        65.864404494747     -197.826042553232        2.109840145687
W        62.728004346432     -192.240706652322        3.351720234882
W        65.864404551197     -193.819211855627        8.900940635285
W        62.727998098734     -199.684446891813       10.050360728316
W        65.864404501003     -186.336394864722        2.109840145687
W        62.728004352688     -180.751058963811        3.351720234882
W        65.864404557453     -182.329564167117        8.900940635285
W        62.727998104990     -188.194799203303       10.050360728316
W        65.864404507259     -174.846747176212        2.109840145687
W        62.728004358944     -169.261411275301        3.351720234882
W        65.864404563709     -170.839916478607        8.900940635285
W        62.727998111246     -176.705151514793       10.050360728316
W        65.864404513516     -163.357099487701        2.109840145687
W        62.728004365201     -157.771763586791        3.351720234882
W        65.864404569965     -159.350268790096        8.900940635285
W        62.727998117502     -165.215503826282       10.050360728316
W        65.864404519772     -151.867451799191        2.109840145687
W        62.728004371457     -146.282115898280        3.351720234882
W        65.864404576221     -147.860621101586        8.900940635285
W        62.727998123758     -153.725856137772       10.050360728316
W        65.864404526028     -140.377804110681        2.109840145687
W        62.728004383986     -134.792467784653        3.351720234882
W        65.864404582477     -136.370973413076        8.900940635285
W        62.727998130015     -142.236208449262       10.050360728316
W        65.864404532284     -128.888156422170        2.109840145687
W        62.728004390242     -123.302820096142        3.351720234882
W        65.864404588734     -124.881325724565        8.900940635285
W        62.727998136271     -130.746560760751       10.050360728316
W        65.864404538540     -117.398508733660        2.109840145687
W        62.728004396498     -111.813172407632        3.351720234882
W        65.864404594990     -113.391678036055        8.900940635285
W        62.727998142527     -119.256913072241       10.050360728316
W        65.864404544796     -105.908861045150        2.109840145687
W        62.728004402754     -100.323524719122        3.351720234882
W        65.864404601246     -101.902030347545        8.900940635285
W        62.727998148783     -107.767265383731       10.050360728316
W        65.864404551053      -94.419213356639        2.109840145687
W        62.728004409010      -88.833877030611        3.351720234882
W        65.864404613775      -90.412382233917        8.900940635285
W        62.727998155039      -96.277617695220       10.050360728316
W        65.864404557309      -82.929565668129        2.109840145687
W        62.728004415267      -77.344229342101        3.351720234882
W        65.864404620031      -78.922734545407        8.900940635285
W        62.727997998203      -84.787970006710       10.050360728316
W        65.864404563565      -71.439917979619        2.109840145687
W        62.728004421523      -65.854581653591        3.351720234882
W        65.864404626287      -67.433086856897        8.900940635285
W        62.727998004459      -73.298322318199       10.050360728316
W        65.864404569821      -59.950270291108        2.109840145687
W        62.728004427779      -54.364933965080        3.351720234882
W        65.864404632543      -55.943439168386        8.900940635285
W        62.727998010715      -61.808674629689       10.050360728316
W        65.864404576077      -48.460622602598        2.109840145687
W        62.728004270942      -42.875286276570        3.351720234882
W        65.864404638799      -44.453791479876        8.900940635285
W        62.727998016971      -50.319026941179       10.050360728316
W        65.864404582333      -36.970974914088        2.109840145687
W        62.728004277198      -31.385638588060        3.351720234882
W        65.864404645056      -32.964143791366        8.900940635285
W        62.727998023227      -38.829379252668       10.050360728316
W        65.864404588590      -25.481327225577        2.109840145687
W        62.728004283455      -19.895990899549        3.351720234882
W        65.864404488219      -21.474496102855        8.900940635285
W        62.727998029483      -27.339731564158       10.050360728316
W        65.864404594846      -13.991679537067        2.109840145687
W        62.728004289711       -8.406343211039        3.351720234882
W        65.864404494475       -9.984848414345        8.900940635285
W        62.727998035740      -15.850083875648       10.050360728316
W        65.864404601102       -2.502031848556        2.109840145687
W        62.728004295967        3.083304477471        3.351720234882
W        65.864404500731        1.504799274165        8.900940635285
W        62.727998041996       -4.360436187137       10.050360728316
W        65.864404613631        8.987616265071        2.109840145687
W        62.728004302223       14.572952165982        3.351720234882
W        65.864404506988       12.994446962676        8.900940635285
W        62.727998048252        7.129211501373       10.050360728316
W        65.864404619887       20.477263953581        2.109840145687
W        62.728004308479       26.062599854492        3.351720234882
W        65.864404513244       24.484094651186        8.900940635285
W        62.727998054508       18.618859189883       10.050360728316
W        65.864404626143       31.966911642092        2.109840145687
W        62.728004314735       37.552247543002        3.351720234882
W        65.864404519500       35.973742339697        8.900940635285
W        62.727998060764       30.108506878394       10.050360728316
W        65.864404632399       43.456559330602        2.109840145687
W        62.728004320992       49.041895231513        3.351720234882
W        65.864404525756       47.463390028207        8.900940635285
W        62.727998067020       41.598154566904       10.050360728316
W        65.864404638656       54.946207019112        2.109840145687
W        62.728004327248       60.531542920023        3.351720234882
W        65.864404532012       58.953037716717        8.900940635285
W        62.727998073277       53.087802255414       10.050360728316
W        65.864404644912       66.435854707623        2.109840145687
W        62.728004333504       72.021190608533        3.351720234882
W        65.864404538268       70.442685405228        8.900940635285
W        62.727998079533       64.577449943925       10.050360728316
W        65.864404488075       77.925502396133        2.109840145687
W        62.728004339760       83.510838297044        3.351720234882
W        65.864404544525       81.932333093738        8.900940635285
W        62.727998085789       76.067097632435       10.050360728316
W        65.864404494331       89.415150084643        2.109840145687
W        62.728004346016       95.000485985554        3.351720234882
W        65.864404550781       93.421980782248        8.900940635285
W        62.727998092045       87.556745320945       10.050360728316
W        65.864404500587      100.904797773154        2.109840145687
W        62.728004352273      106.490133674065        3.351720234882
W        65.864404557037      104.911628470759        8.900940635285
W        62.727998098301       99.046393009456       10.050360728316
W        65.864404506844      112.394445461664        2.109840145687
W        62.728004358529      117.979781362575        3.351720234882
W        65.864404563293      116.401276159269        8.900940635285
W        62.727998104557      110.536040697966       10.050360728316
W        65.864404513100      123.884093150174        2.109840145687
W        62.728004364785      129.469429051085        3.351720234882
W        65.864404569549      127.890923847779        8.900940635285
W        62.727998110814      122.025688386477       10.050360728316
W        65.864404519356      135.373740838685        2.109840145687
W        62.728004371041      140.959076739596        3.351720234882
W        65.864404575805      139.380571536290        8.900940635285
W        62.727998117070      133.515336074987       10.050360728316
W        65.864404525612      146.863388527195        2.109840145687
W        62.728004377297      152.448724428106        3.351720234882
W        65.864404582062      150.870219224800        8.900940635285
W        62.727998123326      145.004983763497       10.050360728316
W        65.864404531868      158.353036215705        2.109840145687
W        62.728004383553      163.938372116616        3.351720234882
W        65.864404588318      162.359866913310        8.900940635285
W        62.727998129582      156.494631452008       10.050360728316
W        65.864404538125      169.842683904216        2.109840145687
W        62.728004389809      175.428019805127        3.351720234882
W        65.864404594574      173.849514601821        8.900940635285
W        62.727998135838      167.984279140518       10.050360728316
W        65.864404544381      181.332331592726        2.109840145687
W        62.728004396066      186.917667493637        3.351720234882
W        65.864404600830      185.339162290331        8.900940635285
W        62.727998142094      179.473926829028       10.050360728316
W        65.864404550637      192.821979281237        2.109840145687
W        62.728004402322      198.407315182147        3.351720234882
W        65.864404607086      196.828809978842        8.900940635285
W        62.727998148351      190.963574517539       10.050360728316
W        65.864404556893      204.311626969747        2.109840145687
W        62.728004408578      209.896962870658        3.351720234882
W        65.864404613342      208.318457667352        8.900940635285
W        62.727997991514      202.453222206049       10.050360728316
W        59.591604129149     -209.315690241743        2.109840145687
W        56.455203980834     -203.730354340832        3.351720234882
W        59.591604185599     -205.308859544138        8.900940635285
W        56.455197563770     -211.174095005441       10.050360728316
W        59.591604135405     -197.826042553232        2.109840145687
W        56.455203987090     -192.240706652322        3.351720234882
W        59.591604191855     -193.819211855627        8.900940635285
W        56.455197576299     -199.684446891813       10.050360728316
W        59.591604141661     -186.336394864722        2.109840145687
W        56.455203830254     -180.751058963811        3.351720234882
W        59.591604198111     -182.329564167117        8.900940635285
W        56.455197582555     -188.194799203303       10.050360728316
W        59.591604147918     -174.846747176212        2.109840145687
W        56.455203836510     -169.261411275301        3.351720234882
W        59.591604204367     -170.839916478607        8.900940635285
W        56.455197588811     -176.705151514793       10.050360728316
W        59.591604154174     -163.357099487701        2.109840145687
W        56.455203842766     -157.771763586791        3.351720234882
W        59.591604047530     -159.350268790096        8.900940635285
W        56.455197595068     -165.215503826282       10.050360728316
W        59.591604160430     -151.867451799191        2.109840145687
W        56.455203849022     -146.282115898280        3.351720234882
W        59.591604053787     -147.860621101586        8.900940635285
W        56.455197601324     -153.725856137772       10.050360728316
W        59.591604166686     -140.377804110681        2.109840145687
W        56.455203861551     -134.792467784653        3.351720234882
W        59.591604060043     -136.370973413076        8.900940635285
W        56.455197607580     -142.236208449262       10.050360728316
W        59.591604172942     -128.888156422170        2.109840145687
W        56.455203867807     -123.302820096142        3.351720234882
W        59.591604066299     -124.881325724565        8.900940635285
W        56.455197613836     -130.746560760751       10.050360728316
W        59.591604179198     -117.398508733660        2.109840145687
W        56.455203874064     -111.813172407632        3.351720234882
W        59.591604072555     -113.391678036055        8.900940635285
W        56.455197620092     -119.256913072241       10.050360728316
W        59.591604185455     -105.908861045150        2.109840145687
W        56.455203880320     -100.323524719122        3.351720234882
W        59.591604078811     -101.902030347545        8.900940635285
W        56.455197626348     -107.767265383731       10.050360728316
W        59.591604191711      -94.419213356639        2.109840145687
W        56.455203886576      -88.833877030611        3.351720234882
W        59.591604091340      -90.412382233917        8.900940635285
W        56.455197632605      -96.277617695220       10.050360728316
W        59.591604197967      -82.929565668129        2.109840145687
W        56.455203892832      -77.344229342101        3.351720234882
W        59.591604097596      -78.922734545407        8.900940635285
W        56.455197638861      -84.787970006710       10.050360728316
W        59.591604204223      -71.439917979619        2.109840145687
W        56.455203899088      -65.854581653591        3.351720234882
W        59.591604103853      -67.433086856897        8.900940635285
W        56.455197645117      -73.298322318199       10.050360728316
W        59.591604047387      -59.950270291108        2.109840145687
W        56.455203905344      -54.364933965080        3.351720234882
W        59.591604110109      -55.943439168386        8.900940635285
W        56.455197651373      -61.808674629689       10.050360728316
W        59.591604053643      -48.460622602598        2.109840145687
W        56.455203911601      -42.875286276570        3.351720234882
W        59.591604116365      -44.453791479876        8.900940635285
W        56.455197657629      -50.319026941179       10.050360728316
W        59.591604059899      -36.970974914088        2.109840145687
W        56.455203917857      -31.385638588060        3.351720234882
W        59.591604122621      -32.964143791366        8.900940635285
W        56.455197663885      -38.829379252668       10.050360728316
W        59.591604066155      -25.481327225577        2.109840145687
W        56.455203924113      -19.895990899549        3.351720234882
W        59.591604128877      -21.474496102855        8.900940635285
W        56.455197670142      -27.339731564158       10.050360728316
W        59.591604072411      -13.991679537067        2.109840145687
W        56.455203930369       -8.406343211039        3.351720234882
W        59.591604135133       -9.984848414345        8.900940635285
W        56.455197676398      -15.850083875648       10.050360728316
W        59.591604078667       -2.502031848556        2.109840145687
W        56.455203936625        3.083304477471        3.351720234882
W        59.591604141390        1.504799274165        8.900940635285
W        56.455197682654       -4.360436187137       10.050360728316
W        59.591604091196        8.987616265071        2.109840145687
W        56.455203942881       14.572952165982        3.351720234882
W        59.591604147646       12.994446962676        8.900940635285
W        56.455197688910        7.129211501373       10.050360728316
W        59.591604097453       20.477263953581        2.109840145687
W        56.455203949138       26.062599854492        3.351720234882
W        59.591604153902       24.484094651186        8.900940635285
W        56.455197695166       18.618859189883       10.050360728316
W        59.591604103709       31.966911642092        2.109840145687
W        56.455203955394       37.552247543002        3.351720234882
W        59.591604160158       35.973742339697        8.900940635285
W        56.455197701422       30.108506878394       10.050360728316
W        59.591604109965       43.456559330602        2.109840145687
W        56.455203961650       49.041895231513        3.351720234882
W        59.591604166414       47.463390028207        8.900940635285
W        56.455197707679       41.598154566904       10.050360728316
W        59.591604116221       54.946207019112        2.109840145687
W        56.455203967906       60.531542920023        3.351720234882
W        59.591604172670       58.953037716717        8.900940635285
W        56.455197713935       53.087802255414       10.050360728316
W        59.591604122477       66.435854707623        2.109840145687
W        56.455203974162       72.021190608533        3.351720234882
W        59.591604178927       70.442685405228        8.900940635285
W        56.455197557098       64.577449943925       10.050360728316
W        59.591604128733       77.925502396133        2.109840145687
W        56.455203980418       83.510838297044        3.351720234882
W        59.591604185183       81.932333093738        8.900940635285
W        56.455197563354       76.067097632435       10.050360728316
W        59.591604134990       89.415150084643        2.109840145687
W        56.455203986675       95.000485985554        3.351720234882
W        59.591604191439       93.421980782248        8.900940635285
W        56.455197569610       87.556745320945       10.050360728316
W        59.591604141246      100.904797773154        2.109840145687
W        56.455203829838      106.490133674065        3.351720234882
W        59.591604197695      104.911628470759        8.900940635285
W        56.455197575867       99.046393009456       10.050360728316
W        59.591604147502      112.394445461664        2.109840145687
W        56.455203836094      117.979781362575        3.351720234882
W        59.591604203951      116.401276159269        8.900940635285
W        56.455197582123      110.536040697966       10.050360728316
W        59.591604153758      123.884093150174        2.109840145687
W        56.455203842350      129.469429051085        3.351720234882
W        59.591604047115      127.890923847779        8.900940635285
W        56.455197588379      122.025688386477       10.050360728316
W        59.591604160014      135.373740838685        2.109840145687
W        56.455203848606      140.959076739596        3.351720234882
W        59.591604053371      139.380571536290        8.900940635285
W        56.455197594635      133.515336074987       10.050360728316
W        59.591604166270      146.863388527195        2.109840145687
W        56.455203854863      152.448724428106        3.351720234882
W        59.591604059627      150.870219224800        8.900940635285
W        56.455197600891      145.004983763497       10.050360728316
W        59.591604172527      158.353036215705        2.109840145687
W        56.455203861119      163.938372116616        3.351720234882
W        59.591604065883      162.359866913310        8.900940635285
W        56.455197607147      156.494631452008       10.050360728316
W        59.591604178783      169.842683904216        2.109840145687
W        56.455203867375      175.428019805127        3.351720234882
W        59.591604072139      173.849514601821        8.900940635285
W        56.455197613404      167.984279140518       10.050360728316
W        59.591604185039      181.332331592726        2.109840145687
W        56.455203873631      186.917667493637        3.351720234882
W        59.591604078395      185.339162290331        8.900940635285
W        56.455197619660      179.473926829028       10.050360728316
W        59.591604191295      192.821979281237        2.109840145687
W        56.455203879887      198.407315182147        3.351720234882
W        59.591604084652      196.828809978842        8.900940635285
W        56.455197625916      190.963574517539       10.050360728316
W        59.591604197551      204.311626969747        2.109840145687
W        56.455203886143      209.896962870658        3.351720234882
W        59.591604090908      208.318457667352        8.900940635285
W        56.455197632172      202.453222206049       10.050360728316
W        53.318803769807     -209.315690241743        2.109840145687
W        50.182403458400     -203.730354340832        3.351720234882
W        53.318803663164     -205.308859544138        8.900940635285
W        50.182397204428     -211.174095005441       10.050360728316
W        53.318803612971     -197.826042553232        2.109840145687
W        50.182403464656     -192.240706652322        3.351720234882
W        53.318803669420     -193.819211855627        8.900940635285
W        50.182397216957     -199.684446891813       10.050360728316
W        53.318803619227     -186.336394864722        2.109840145687
W        50.182403470912     -180.751058963811        3.351720234882
W        53.318803675676     -182.329564167117        8.900940635285
W        50.182397223213     -188.194799203303       10.050360728316
W        53.318803625483     -174.846747176212        2.109840145687
W        50.182403477168     -169.261411275301        3.351720234882
W        53.318803681932     -170.839916478607        8.900940635285
W        50.182397229470     -176.705151514793       10.050360728316
W        53.318803631739     -163.357099487701        2.109840145687
W        50.182403483424     -157.771763586791        3.351720234882
W        53.318803688189     -159.350268790096        8.900940635285
W        50.182397235726     -165.215503826282       10.050360728316
W        53.318803637995     -151.867451799191        2.109840145687
W        50.182403489680     -146.282115898280        3.351720234882
W        53.318803694445     -147.860621101586        8.900940635285
W        50.182397241982     -153.725856137772       10.050360728316
W        53.318803644252     -140.377804110681        2.109840145687
W        50.182403502209     -134.792467784653        3.351720234882
W        53.318803700701     -136.370973413076        8.900940635285
W        50.182397248238     -142.236208449262       10.050360728316
W        53.318803650508     -128.888156422170        2.109840145687
W        50.182403508466     -123.302820096142        3.351720234882
W        53.318803706957     -124.881325724565        8.900940635285
W        50.182397254494     -130.746560760751       10.050360728316
W        53.318803656764     -117.398508733660        2.109840145687
W        50.182403514722     -111.813172407632        3.351720234882
W        53.318803713213     -113.391678036055        8.900940635285
W        50.182397260750     -119.256913072241       10.050360728316
W        53.318803663020     -105.908861045150        2.109840145687
W        50.182403520978     -100.323524719122        3.351720234882
W        53.318803719469     -101.902030347545        8.900940635285
W        50.182397267007     -107.767265383731       10.050360728316
W        53.318803669276      -94.419213356639        2.109840145687
W        50.182403527234      -88.833877030611        3.351720234882
W        53.318803731998      -90.412382233917        8.900940635285
W        50.182397273263      -96.277617695220       10.050360728316
W        53.318803675532      -82.929565668129        2.109840145687
W        50.182403533490      -77.344229342101        3.351720234882
W        53.318803738255      -78.922734545407        8.900940635285
W        50.182397279519      -84.787970006710       10.050360728316
W        53.318803681789      -71.439917979619        2.109840145687
W        50.182403539746      -65.854581653591        3.351720234882
W        53.318803744511      -67.433086856897        8.900940635285
W        50.182397285775      -73.298322318199       10.050360728316
W        53.318803688045      -59.950270291108        2.109840145687
W        50.182403546003      -54.364933965080        3.351720234882
W        53.318803750767      -55.943439168386        8.900940635285
W        50.182397128939      -61.808674629689       10.050360728316
W        53.318803694301      -48.460622602598        2.109840145687
W        50.182403552259      -42.875286276570        3.351720234882
W        53.318803757023      -44.453791479876        8.900940635285
W        50.182397135195      -50.319026941179       10.050360728316
W        53.318803700557      -36.970974914088        2.109840145687
W        50.182403558515      -31.385638588060        3.351720234882
W        53.318803763279      -32.964143791366        8.900940635285
W        50.182397141451      -38.829379252668       10.050360728316
W        53.318803706813      -25.481327225577        2.109840145687
W        50.182403401678      -19.895990899549        3.351720234882
W        53.318803769535      -21.474496102855        8.900940635285
W        50.182397147707      -27.339731564158       10.050360728316
W        53.318803713069      -13.991679537067        2.109840145687
W        50.182403407934       -8.406343211039        3.351720234882
W        53.318803775792       -9.984848414345        8.900940635285
W        50.182397153963      -15.850083875648       10.050360728316
W        53.318803719326       -2.502031848556        2.109840145687
W        50.182403414191        3.083304477471        3.351720234882
W        53.318803618955        1.504799274165        8.900940635285
W        50.182397160219       -4.360436187137       10.050360728316
W        53.318803731855        8.987616265071        2.109840145687
W        50.182403420447       14.572952165982        3.351720234882
W        53.318803625211       12.994446962676        8.900940635285
W        50.182397166476        7.129211501373       10.050360728316
W        53.318803738111       20.477263953581        2.109840145687
W        50.182403426703       26.062599854492        3.351720234882
W        53.318803631467       24.484094651186        8.900940635285
W        50.182397172732       18.618859189883       10.050360728316
W        53.318803744367       31.966911642092        2.109840145687
W        50.182403432959       37.552247543002        3.351720234882
W        53.318803637723       35.973742339697        8.900940635285
W        50.182397178988       30.108506878394       10.050360728316
W        53.318803750623       43.456559330602        2.109840145687
W        50.182403439215       49.041895231513        3.351720234882
W        53.318803643980       47.463390028207        8.900940635285
W        50.182397185244       41.598154566904       10.050360728316
W        53.318803756879       54.946207019112        2.109840145687
W        50.182403445471       60.531542920023        3.351720234882
W        53.318803650236       58.953037716717        8.900940635285
W        50.182397191500       53.087802255414       10.050360728316
W        53.318803763135       66.435854707623        2.109840145687
W        50.182403451728       72.021190608533        3.351720234882
W        53.318803656492       70.442685405228        8.900940635285
W        50.182397197756       64.577449943925       10.050360728316
W        53.318803769392       77.925502396133        2.109840145687
W        50.182403457984       83.510838297044        3.351720234882
W        53.318803662748       81.932333093738        8.900940635285
W        50.182397204013       76.067097632435       10.050360728316
W        53.318803775648       89.415150084643        2.109840145687
W        50.182403464240       95.000485985554        3.351720234882
W        53.318803669004       93.421980782248        8.900940635285
W        50.182397210269       87.556745320945       10.050360728316
W        53.318803618811      100.904797773154        2.109840145687
W        50.182403470496      106.490133674065        3.351720234882
W        53.318803675260      104.911628470759        8.900940635285
W        50.182397216525       99.046393009456       10.050360728316
W        53.318803625067      112.394445461664        2.109840145687
W        50.182403476752      117.979781362575        3.351720234882
W        53.318803681517      116.401276159269        8.900940635285
W        50.182397222781      110.536040697966       10.050360728316
W        53.318803631323      123.884093150174        2.109840145687
W        50.182403483008      129.469429051085        3.351720234882
W        53.318803687773      127.890923847779        8.900940635285
W        50.182397229037      122.025688386477       10.050360728316
W        53.318803637580      135.373740838685        2.109840145687
W        50.182403489265      140.959076739596        3.351720234882
W        53.318803694029      139.380571536290        8.900940635285
W        50.182397235293      133.515336074987       10.050360728316
W        53.318803643836      146.863388527195        2.109840145687
W        50.182403495521      152.448724428106        3.351720234882
W        53.318803700285      150.870219224800        8.900940635285
W        50.182397241550      145.004983763497       10.050360728316
W        53.318803650092      158.353036215705        2.109840145687
W        50.182403501777      163.938372116616        3.351720234882
W        53.318803706541      162.359866913310        8.900940635285
W        50.182397247806      156.494631452008       10.050360728316
W        53.318803656348      169.842683904216        2.109840145687
W        50.182403508033      175.428019805127        3.351720234882
W        53.318803712798      173.849514601821        8.900940635285
W        50.182397254062      167.984279140518       10.050360728316
W        53.318803662604      181.332331592726        2.109840145687
W        50.182403514289      186.917667493637        3.351720234882
W        53.318803719054      185.339162290331        8.900940635285
W        50.182397260318      179.473926829028       10.050360728316
W        53.318803668860      192.821979281237        2.109840145687
W        50.182403520545      198.407315182147        3.351720234882
W        53.318803725310      196.828809978842        8.900940635285
W        50.182397266574      190.963574517539       10.050360728316
W        53.318803675117      204.311626969747        2.109840145687
W        50.182403526802      209.896962870658        3.351720234882
W        53.318803731566      208.318457667352        8.900940635285
W        50.182397272830      202.453222206049       10.050360728316
W        47.046003247373     -209.315690241743        2.109840145687
W        43.909603099058     -203.730354340832        3.351720234882
W        47.046003303822     -205.308859544138        8.900940635285
W        43.909596845087     -211.174095005441       10.050360728316
W        47.046003253629     -197.826042553232        2.109840145687
W        43.909603105314     -192.240706652322        3.351720234882
W        47.046003310078     -193.819211855627        8.900940635285
W        43.909596694523     -199.684446891813       10.050360728316
W        47.046003259885     -186.336394864722        2.109840145687
W        43.909603111570     -180.751058963811        3.351720234882
W        47.046003316335     -182.329564167117        8.900940635285
W        43.909596700779     -188.194799203303       10.050360728316
W        47.046003266141     -174.846747176212        2.109840145687
W        43.909603117826     -169.261411275301        3.351720234882
W        47.046003322591     -170.839916478607        8.900940635285
W        43.909596707035     -176.705151514793       10.050360728316
W        47.046003272397     -163.357099487701        2.109840145687
W        43.909602960990     -157.771763586791        3.351720234882
W        47.046003328847     -159.350268790096        8.900940635285
W        43.909596713291     -165.215503826282       10.050360728316
W        47.046003278654     -151.867451799191        2.109840145687
W        43.909602967246     -146.282115898280        3.351720234882
W        47.046003335103     -147.860621101586        8.900940635285
W        43.909596719547     -153.725856137772       10.050360728316
W        47.046003284910     -140.377804110681        2.109840145687
W        43.909602979775     -134.792467784653        3.351720234882
W        47.046003178266     -136.370973413076        8.900940635285
W        43.909596725804     -142.236208449262       10.050360728316
W        47.046003291166     -128.888156422170        2.109840145687
W        43.909602986031     -123.302820096142        3.351720234882
W        47.046003184523     -124.881325724565        8.900940635285
W        43.909596732060     -130.746560760751       10.050360728316
W        47.046003297422     -117.398508733660        2.109840145687
W        43.909602992287     -111.813172407632        3.351720234882
W        47.046003190779     -113.391678036055        8.900940635285
W        43.909596738316     -119.256913072241       10.050360728316
W        47.046003303678     -105.908861045150        2.109840145687
W        43.909602998543     -100.323524719122        3.351720234882
W        47.046003197035     -101.902030347545        8.900940635285
W        43.909596744572     -107.767265383731       10.050360728316
W        47.046003309934      -94.419213356639        2.109840145687
W        43.909603004799      -88.833877030611        3.351720234882
W        47.046003209564      -90.412382233917        8.900940635285
W        43.909596750828      -96.277617695220       10.050360728316
W        47.046003316191      -82.929565668129        2.109840145687
W        43.909603011056      -77.344229342101        3.351720234882
W        47.046003215820      -78.922734545407        8.900940635285
W        43.909596757084      -84.787970006710       10.050360728316
W        47.046003322447      -71.439917979619        2.109840145687
W        43.909603017312      -65.854581653591        3.351720234882
W        47.046003222076      -67.433086856897        8.900940635285
W        43.909596763341      -73.298322318199       10.050360728316
W        47.046003328703      -59.950270291108        2.109840145687
W        43.909603023568      -54.364933965080        3.351720234882
W        47.046003228332      -55.943439168386        8.900940635285
W        43.909596769597      -61.808674629689       10.050360728316
W        47.046003334959      -48.460622602598        2.109840145687
W        43.909603029824      -42.875286276570        3.351720234882
W        47.046003234589      -44.453791479876        8.900940635285
W        43.909596775853      -50.319026941179       10.050360728316
W        47.046003178122      -36.970974914088        2.109840145687
W        43.909603036080      -31.385638588060        3.351720234882
W        47.046003240845      -32.964143791366        8.900940635285
W        43.909596782109      -38.829379252668       10.050360728316
W        47.046003184379      -25.481327225577        2.109840145687
W        43.909603042336      -19.895990899549        3.351720234882
W        47.046003247101      -21.474496102855        8.900940635285
W        43.909596788365      -27.339731564158       10.050360728316
W        47.046003190635      -13.991679537067        2.109840145687
W        43.909603048593       -8.406343211039        3.351720234882
W        47.046003253357       -9.984848414345        8.900940635285
W        43.909596794621      -15.850083875648       10.050360728316
W        47.046003196891       -2.502031848556        2.109840145687
W        43.909603054849        3.083304477471        3.351720234882
W        47.046003259613        1.504799274165        8.900940635285
W        43.909596800878       -4.360436187137       10.050360728316
W        47.046003209420        8.987616265071        2.109840145687
W        43.909603061105       14.572952165982        3.351720234882
W        47.046003265869       12.994446962676        8.900940635285
W        43.909596807134        7.129211501373       10.050360728316
W        47.046003215676       20.477263953581        2.109840145687
W        43.909603067361       26.062599854492        3.351720234882
W        47.046003272126       24.484094651186        8.900940635285
W        43.909596813390       18.618859189883       10.050360728316
W        47.046003221932       31.966911642092        2.109840145687
W        43.909603073617       37.552247543002        3.351720234882
W        47.046003278382       35.973742339697        8.900940635285
W        43.909596819646       30.108506878394       10.050360728316
W        47.046003228188       43.456559330602        2.109840145687
W        43.909603079874       49.041895231513        3.351720234882
W        47.046003284638       47.463390028207        8.900940635285
W        43.909596825902       41.598154566904       10.050360728316
W        47.046003234445       54.946207019112        2.109840145687
W        43.909603086130       60.531542920023        3.351720234882
W        47.046003290894       58.953037716717        8.900940635285
W        43.909596832158       53.087802255414       10.050360728316
W        47.046003240701       66.435854707623        2.109840145687
W        43.909603092386       72.021190608533        3.351720234882
W        47.046003297150       70.442685405228        8.900940635285
W        43.909596838415       64.577449943925       10.050360728316
W        47.046003246957       77.925502396133        2.109840145687
W        43.909603098642       83.510838297044        3.351720234882
W        47.046003303406       81.932333093738        8.900940635285
W        43.909596844671       76.067097632435       10.050360728316
W        47.046003253213       89.415150084643        2.109840145687
W        43.909603104898       95.000485985554        3.351720234882
W        47.046003309663       93.421980782248        8.900940635285
W        43.909596687834       87.556745320945       10.050360728316
W        47.046003259469      100.904797773154        2.109840145687
W        43.909603111154      106.490133674065        3.351720234882
W        47.046003315919      104.911628470759        8.900940635285
W        43.909596694090       99.046393009456       10.050360728316
W        47.046003265725      112.394445461664        2.109840145687
W        43.909603117411      117.979781362575        3.351720234882
W        47.046003322175      116.401276159269        8.900940635285
W        43.909596700346      110.536040697966       10.050360728316
W        47.046003271982      123.884093150174        2.109840145687
W        43.909602960574      129.469429051085        3.351720234882
W        47.046003328431      127.890923847779        8.900940635285
W        43.909596706603      122.025688386477       10.050360728316
W        47.046003278238      135.373740838685        2.109840145687
W        43.909602966830      140.959076739596        3.351720234882
W        47.046003334687      139.380571536290        8.900940635285
W        43.909596712859      133.515336074987       10.050360728316
W        47.046003284494      146.863388527195        2.109840145687
W        43.909602973086      152.448724428106        3.351720234882
W        47.046003177851      150.870219224800        8.900940635285
W        43.909596719115      145.004983763497       10.050360728316
W        47.046003290750      158.353036215705        2.109840145687
W        43.909602979342      163.938372116616        3.351720234882
W        47.046003184107      162.359866913310        8.900940635285
W        43.909596725371      156.494631452008       10.050360728316
W        47.046003297006      169.842683904216        2.109840145687
W        43.909602985599      175.428019805127        3.351720234882
W        47.046003190363      173.849514601821        8.900940635285
W        43.909596731627      167.984279140518       10.050360728316
W        47.046003303263      181.332331592726        2.109840145687
W        43.909602991855      186.917667493637        3.351720234882
W        47.046003196619      185.339162290331        8.900940635285
W        43.909596737883      179.473926829028       10.050360728316
W        47.046003309519      192.821979281237        2.109840145687
W        43.909602998111      198.407315182147        3.351720234882
W        47.046003202875      196.828809978842        8.900940635285
W        43.909596744140      190.963574517539       10.050360728316
W        47.046003315775      204.311626969747        2.109840145687
W        43.909603004367      209.896962870658        3.351720234882
W        47.046003209131      208.318457667352        8.900940635285
W        43.909596750396      202.453222206049       10.050360728316
W        40.773202888031     -209.315690241743        2.109840145687
W        37.636802576623     -203.730354340832        3.351720234882
W        40.773202781388     -205.308859544138        8.900940635285
W        37.636796322652     -211.174095005441       10.050360728316
W        40.773202894287     -197.826042553232        2.109840145687
W        37.636802582879     -192.240706652322        3.351720234882
W        40.773202787644     -193.819211855627        8.900940635285
W        37.636796335181     -199.684446891813       10.050360728316
W        40.773202900543     -186.336394864722        2.109840145687
W        37.636802589136     -180.751058963811        3.351720234882
W        40.773202793900     -182.329564167117        8.900940635285
W        37.636796341437     -188.194799203303       10.050360728316
W        40.773202743707     -174.846747176212        2.109840145687
W        37.636802595392     -169.261411275301        3.351720234882
W        40.773202800156     -170.839916478607        8.900940635285
W        37.636796347693     -176.705151514793       10.050360728316
W        40.773202749963     -163.357099487701        2.109840145687
W        37.636802601648     -157.771763586791        3.351720234882
W        40.773202806412     -159.350268790096        8.900940635285
W        37.636796353949     -165.215503826282       10.050360728316
W        40.773202756219     -151.867451799191        2.109840145687
W        37.636802607904     -146.282115898280        3.351720234882
W        40.773202812668     -147.860621101586        8.900940635285
W        37.636796360206     -153.725856137772       10.050360728316
W        40.773202762475     -140.377804110681        2.109840145687
W        37.636802620433     -134.792467784653        3.351720234882
W        40.773202818925     -136.370973413076        8.900940635285
W        37.636796366462     -142.236208449262       10.050360728316
W        40.773202768731     -128.888156422170        2.109840145687
W        37.636802626689     -123.302820096142        3.351720234882
W        40.773202825181     -124.881325724565        8.900940635285
W        37.636796372718     -130.746560760751       10.050360728316
W        40.773202774988     -117.398508733660        2.109840145687
W        37.636802632945     -111.813172407632        3.351720234882
W        40.773202831437     -113.391678036055        8.900940635285
W        37.636796378974     -119.256913072241       10.050360728316
W        40.773202781244     -105.908861045150        2.109840145687
W        37.636802639202     -100.323524719122        3.351720234882
W        40.773202837693     -101.902030347545        8.900940635285
W        37.636796385230     -107.767265383731       10.050360728316
W        40.773202787500      -94.419213356639        2.109840145687
W        37.636802645458      -88.833877030611        3.351720234882
W        40.773202850222      -90.412382233917        8.900940635285
W        37.636796391486      -96.277617695220       10.050360728316
W        40.773202793756      -82.929565668129        2.109840145687
W        37.636802651714      -77.344229342101        3.351720234882
W        40.773202856478      -78.922734545407        8.900940635285
W        37.636796397743      -84.787970006710       10.050360728316
W        40.773202800012      -71.439917979619        2.109840145687
W        37.636802657970      -65.854581653591        3.351720234882
W        40.773202862734      -67.433086856897        8.900940635285
W        37.636796403999      -73.298322318199       10.050360728316
W        40.773202806268      -59.950270291108        2.109840145687
W        37.636802664226      -54.364933965080        3.351720234882
W        40.773202868991      -55.943439168386        8.900940635285
W        37.636796410255      -61.808674629689       10.050360728316
W        40.773202812525      -48.460622602598        2.109840145687
W        37.636802670482      -42.875286276570        3.351720234882
W        40.773202875247      -44.453791479876        8.900940635285
W        37.636796416511      -50.319026941179       10.050360728316
W        40.773202818781      -36.970974914088        2.109840145687
W        37.636802676739      -31.385638588060        3.351720234882
W        40.773202881503      -32.964143791366        8.900940635285
W        37.636796259674      -38.829379252668       10.050360728316
W        40.773202825037      -25.481327225577        2.109840145687
W        37.636802682995      -19.895990899549        3.351720234882
W        40.773202887759      -21.474496102855        8.900940635285
W        37.636796265931      -27.339731564158       10.050360728316
W        40.773202831293      -13.991679537067        2.109840145687
W        37.636802689251       -8.406343211039        3.351720234882
W        40.773202894015       -9.984848414345        8.900940635285
W        37.636796272187      -15.850083875648       10.050360728316
W        40.773202837549       -2.502031848556        2.109840145687
W        37.636802532414        3.083304477471        3.351720234882
W        40.773202900271        1.504799274165        8.900940635285
W        37.636796278443       -4.360436187137       10.050360728316
W        40.773202850078        8.987616265071        2.109840145687
W        37.636802538670       14.572952165982        3.351720234882
W        40.773202906528       12.994446962676        8.900940635285
W        37.636796284699        7.129211501373       10.050360728316
W        40.773202856334       20.477263953581        2.109840145687
W        37.636802544927       26.062599854492        3.351720234882
W        40.773202749691       24.484094651186        8.900940635285
W        37.636796290955       18.618859189883       10.050360728316
W        40.773202862591       31.966911642092        2.109840145687
W        37.636802551183       37.552247543002        3.351720234882
W        40.773202755947       35.973742339697        8.900940635285
W        37.636796297211       30.108506878394       10.050360728316
W        40.773202868847       43.456559330602        2.109840145687
W        37.636802557439       49.041895231513        3.351720234882
W        40.773202762203       47.463390028207        8.900940635285
W        37.636796303468       41.598154566904       10.050360728316
W        40.773202875103       54.946207019112        2.109840145687
W        37.636802563695       60.531542920023        3.351720234882
W        40.773202768459       58.953037716717        8.900940635285
W        37.636796309724       53.087802255414       10.050360728316
W        40.773202881359       66.435854707623        2.109840145687
W        37.636802569951       72.021190608533        3.351720234882
W        40.773202774716       70.442685405228        8.900940635285
W        37.636796315980       64.577449943925       10.050360728316
W        40.773202887615       77.925502396133        2.109840145687
W        37.636802576207       83.510838297044        3.351720234882
W        40.773202780972       81.932333093738        8.900940635285
W        37.636796322236       76.067097632435       10.050360728316
W        40.773202893871       89.415150084643        2.109840145687
W        37.636802582464       95.000485985554        3.351720234882
W        40.773202787228       93.421980782248        8.900940635285
W        37.636796328492       87.556745320945       10.050360728316
W        40.773202900128      100.904797773154        2.109840145687
W        37.636802588720      106.490133674065        3.351720234882
W        40.773202793484      104.911628470759        8.900940635285
W        37.636796334748       99.046393009456       10.050360728316
W        40.773202906384      112.394445461664        2.109840145687
W        37.636802594976      117.979781362575        3.351720234882
W        40.773202799740      116.401276159269        8.900940635285
W        37.636796341005      110.536040697966       10.050360728316
W        40.773202749547      123.884093150174        2.109840145687
W        37.636802601232      129.469429051085        3.351720234882
W        40.773202805996      127.890923847779        8.900940635285
W        37.636796347261      122.025688386477       10.050360728316
W        40.773202755803      135.373740838685        2.109840145687
W        37.636802607488      140.959076739596        3.351720234882
W        40.773202812253      139.380571536290        8.900940635285
W        37.636796353517      133.515336074987       10.050360728316
W        40.773202762059      146.863388527195        2.109840145687
W        37.636802613744      152.448724428106        3.351720234882
W        40.773202818509      150.870219224800        8.900940635285
W        37.636796359773      145.004983763497       10.050360728316
W        40.773202768316      158.353036215705        2.109840145687
W        37.636802620001      163.938372116616        3.351720234882
W        40.773202824765      162.359866913310        8.900940635285
W        37.636796366029      156.494631452008       10.050360728316
W        40.773202774572      169.842683904216        2.109840145687
W        37.636802626257      175.428019805127        3.351720234882
W        40.773202831021      173.849514601821        8.900940635285
W        37.636796372286      167.984279140518       10.050360728316
W        40.773202780828      181.332331592726        2.109840145687
W        37.636802632513      186.917667493637        3.351720234882
W        40.773202837277      185.339162290331        8.900940635285
W        37.636796378542      179.473926829028       10.050360728316
W        40.773202787084      192.821979281237        2.109840145687
W        37.636802638769      198.407315182147        3.351720234882
W        40.773202843533      196.828809978842        8.900940635285
W        37.636796384798      190.963574517539       10.050360728316
W        40.773202793340      204.311626969747        2.109840145687
W        37.636802645025      209.896962870658        3.351720234882
W        40.773202849790      208.318457667352        8.900940635285
W        37.636796391054      202.453222206049       10.050360728316
W        34.500402365596     -209.315690241743        2.109840145687
W        31.364002217281     -203.730354340832        3.351720234882
W        34.500402422046     -205.308859544138        8.900940635285
W        31.363995963310     -211.174095005441       10.050360728316
W        34.500402371853     -197.826042553232        2.109840145687
W        31.364002223538     -192.240706652322        3.351720234882
W        34.500402428302     -193.819211855627        8.900940635285
W        31.363995975839     -199.684446891813       10.050360728316
W        34.500402378109     -186.336394864722        2.109840145687
W        31.364002229794     -180.751058963811        3.351720234882
W        34.500402434558     -182.329564167117        8.900940635285
W        31.363995982095     -188.194799203303       10.050360728316
W        34.500402384365     -174.846747176212        2.109840145687
W        31.364002236050     -169.261411275301        3.351720234882
W        34.500402440814     -170.839916478607        8.900940635285
W        31.363995825259     -176.705151514793       10.050360728316
W        34.500402390621     -163.357099487701        2.109840145687
W        31.364002242306     -157.771763586791        3.351720234882
W        34.500402447070     -159.350268790096        8.900940635285
W        31.363995831515     -165.215503826282       10.050360728316
W        34.500402396877     -151.867451799191        2.109840145687
W        31.364002248562     -146.282115898280        3.351720234882
W        34.500402453327     -147.860621101586        8.900940635285
W        31.363995837771     -153.725856137772       10.050360728316
W        34.500402403133     -140.377804110681        2.109840145687
W        31.364002097998     -134.792467784653        3.351720234882
W        34.500402459583     -136.370973413076        8.900940635285
W        31.363995844027     -142.236208449262       10.050360728316
W        34.500402409390     -128.888156422170        2.109840145687
W        31.364002104255     -123.302820096142        3.351720234882
W        34.500402465839     -124.881325724565        8.900940635285
W        31.363995850283     -130.746560760751       10.050360728316
W        34.500402415646     -117.398508733660        2.109840145687
W        31.364002110511     -111.813172407632        3.351720234882
W        34.500402309002     -113.391678036055        8.900940635285
W        31.363995856540     -119.256913072241       10.050360728316
W        34.500402421902     -105.908861045150        2.109840145687
W        31.364002116767     -100.323524719122        3.351720234882
W        34.500402315259     -101.902030347545        8.900940635285
W        31.363995862796     -107.767265383731       10.050360728316
W        34.500402428158      -94.419213356639        2.109840145687
W        31.364002123023      -88.833877030611        3.351720234882
W        34.500402327787      -90.412382233917        8.900940635285
W        31.363995869052      -96.277617695220       10.050360728316
W        34.500402434414      -82.929565668129        2.109840145687
W        31.364002129279      -77.344229342101        3.351720234882
W        34.500402334044      -78.922734545407        8.900940635285
W        31.363995875308      -84.787970006710       10.050360728316
W        34.500402440670      -71.439917979619        2.109840145687
W        31.364002135535      -65.854581653591        3.351720234882
W        34.500402340300      -67.433086856897        8.900940635285
W        31.363995881564      -73.298322318199       10.050360728316
W        34.500402446927      -59.950270291108        2.109840145687
W        31.364002141792      -54.364933965080        3.351720234882
W        34.500402346556      -55.943439168386        8.900940635285
W        31.363995887820      -61.808674629689       10.050360728316
W        34.500402453183      -48.460622602598        2.109840145687
W        31.364002148048      -42.875286276570        3.351720234882
W        34.500402352812      -44.453791479876        8.900940635285
W        31.363995894077      -50.319026941179       10.050360728316
W        34.500402459439      -36.970974914088        2.109840145687
W        31.364002154304      -31.385638588060        3.351720234882
W        34.500402359068      -32.964143791366        8.900940635285
W        31.363995900333      -38.829379252668       10.050360728316
W        34.500402465695      -25.481327225577        2.109840145687
W        31.364002160560      -19.895990899549        3.351720234882
W        34.500402365324      -21.474496102855        8.900940635285
W        31.363995906589      -27.339731564158       10.050360728316
W        34.500402308858      -13.991679537067        2.109840145687
W        31.364002166816       -8.406343211039        3.351720234882
W        34.500402371581       -9.984848414345        8.900940635285
W        31.363995912845      -15.850083875648       10.050360728316
W        34.500402315115       -2.502031848556        2.109840145687
W        31.364002173072        3.083304477471        3.351720234882
W        34.500402377837        1.504799274165        8.900940635285
W        31.363995919101       -4.360436187137       10.050360728316
W        34.500402327644        8.987616265071        2.109840145687
W        31.364002179329       14.572952165982        3.351720234882
W        34.500402384093       12.994446962676        8.900940635285
W        31.363995925357        7.129211501373       10.050360728316
W        34.500402333900       20.477263953581        2.109840145687
W        31.364002185585       26.062599854492        3.351720234882
W        34.500402390349       24.484094651186        8.900940635285
W        31.363995931614       18.618859189883       10.050360728316
W        34.500402340156       31.966911642092        2.109840145687
W        31.364002191841       37.552247543002        3.351720234882
W        34.500402396605       35.973742339697        8.900940635285
W        31.363995937870       30.108506878394       10.050360728316
W        34.500402346412       43.456559330602        2.109840145687
W        31.364002198097       49.041895231513        3.351720234882
W        34.500402402862       47.463390028207        8.900940635285
W        31.363995944126       41.598154566904       10.050360728316
W        34.500402352668       54.946207019112        2.109840145687
W        31.364002204353       60.531542920023        3.351720234882
W        34.500402409118       58.953037716717        8.900940635285
W        31.363995950382       53.087802255414       10.050360728316
W        34.500402358924       66.435854707623        2.109840145687
W        31.364002210609       72.021190608533        3.351720234882
W        34.500402415374       70.442685405228        8.900940635285
W        31.363995956638       64.577449943925       10.050360728316
W        34.500402365181       77.925502396133        2.109840145687
W        31.364002216866       83.510838297044        3.351720234882
W        34.500402421630       81.932333093738        8.900940635285
W        31.363995962894       76.067097632435       10.050360728316
W        34.500402371437       89.415150084643        2.109840145687
W        31.364002223122       95.000485985554        3.351720234882
W        34.500402427886       93.421980782248        8.900940635285
W        31.363995969151       87.556745320945       10.050360728316
W        34.500402377693      100.904797773154        2.109840145687
W        31.364002229378      106.490133674065        3.351720234882
W        34.500402434142      104.911628470759        8.900940635285
W        31.363995975407       99.046393009456       10.050360728316
W        34.500402383949      112.394445461664        2.109840145687
W        31.364002235634      117.979781362575        3.351720234882
W        34.500402440399      116.401276159269        8.900940635285
W        31.363995818570      110.536040697966       10.050360728316
W        34.500402390205      123.884093150174        2.109840145687
W        31.364002241890      129.469429051085        3.351720234882
W        34.500402446655      127.890923847779        8.900940635285
W        31.363995824826      122.025688386477       10.050360728316
W        34.500402396461      135.373740838685        2.109840145687
W        31.364002248146      140.959076739596        3.351720234882
W        34.500402452911      139.380571536290        8.900940635285
W        31.363995831082      133.515336074987       10.050360728316
W        34.500402402718      146.863388527195        2.109840145687
W        31.364002091310      152.448724428106        3.351720234882
W        34.500402459167      150.870219224800        8.900940635285
W        31.363995837339      145.004983763497       10.050360728316
W        34.500402408974      158.353036215705        2.109840145687
W        31.364002097566      163.938372116616        3.351720234882
W        34.500402465423      162.359866913310        8.900940635285
W        31.363995843595      156.494631452008       10.050360728316
W        34.500402415230      169.842683904216        2.109840145687
W        31.364002103822      175.428019805127        3.351720234882
W        34.500402308587      173.849514601821        8.900940635285
W        31.363995849851      167.984279140518       10.050360728316
W        34.500402421486      181.332331592726        2.109840145687
W        31.364002110078      186.917667493637        3.351720234882
W        34.500402314843      185.339162290331        8.900940635285
W        31.363995856107      179.473926829028       10.050360728316
W        34.500402427742      192.821979281237        2.109840145687
W        31.364002116335      198.407315182147        3.351720234882
W        34.500402321099      196.828809978842        8.900940635285
W        31.363995862363      190.963574517539       10.050360728316
W        34.500402433998      204.311626969747        2.109840145687
W        31.364002122591      209.896962870658        3.351720234882
W        34.500402327355      208.318457667352        8.900940635285
W        31.363995868619      202.453222206049       10.050360728316
W        28.227602006255     -209.315690241743        2.109840145687
W        25.091201694847     -203.730354340832        3.351720234882
W        28.227601899611     -205.308859544138        8.900940635285
W        25.091195440876     -211.174095005441       10.050360728316
W        28.227602012511     -197.826042553232        2.109840145687
W        25.091201701103     -192.240706652322        3.351720234882
W        28.227601905867     -193.819211855627        8.900940635285
W        25.091195453405     -199.684446891813       10.050360728316
W        28.227602018767     -186.336394864722        2.109840145687
W        25.091201707359     -180.751058963811        3.351720234882
W        28.227601912124     -182.329564167117        8.900940635285
W        25.091195459661     -188.194799203303       10.050360728316
W        28.227602025023     -174.846747176212        2.109840145687
W        25.091201713615     -169.261411275301        3.351720234882
W        28.227601918380     -170.839916478607        8.900940635285
W        25.091195465917     -176.705151514793       10.050360728316
W        28.227602031279     -163.357099487701        2.109840145687
W        25.091201719872     -157.771763586791        3.351720234882
W        28.227601924636     -159.350268790096        8.900940635285
W        25.091195472173     -165.215503826282       10.050360728316
W        28.227601874443     -151.867451799191        2.109840145687
W        25.091201726128     -146.282115898280        3.351720234882
W        28.227601930892     -147.860621101586        8.900940635285
W        25.091195478429     -153.725856137772       10.050360728316
W        28.227601880699     -140.377804110681        2.109840145687
W        25.091201738657     -134.792467784653        3.351720234882
W        28.227601937148     -136.370973413076        8.900940635285
W        25.091195484685     -142.236208449262       10.050360728316
W        28.227601886955     -128.888156422170        2.109840145687
W        25.091201744913     -123.302820096142        3.351720234882
W        28.227601943404     -124.881325724565        8.900940635285
W        25.091195490942     -130.746560760751       10.050360728316
W        28.227601893211     -117.398508733660        2.109840145687
W        25.091201751169     -111.813172407632        3.351720234882
W        28.227601949661     -113.391678036055        8.900940635285
W        25.091195497198     -119.256913072241       10.050360728316
W        28.227601899467     -105.908861045150        2.109840145687
W        25.091201757425     -100.323524719122        3.351720234882
W        28.227601955917     -101.902030347545        8.900940635285
W        25.091195503454     -107.767265383731       10.050360728316
W        28.227601905724      -94.419213356639        2.109840145687
W        25.091201763681      -88.833877030611        3.351720234882
W        28.227601968446      -90.412382233917        8.900940635285
W        25.091195509710      -96.277617695220       10.050360728316
W        28.227601911980      -82.929565668129        2.109840145687
W        25.091201769937      -77.344229342101        3.351720234882
W        28.227601974702      -78.922734545407        8.900940635285
W        25.091195515966      -84.787970006710       10.050360728316
W        28.227601918236      -71.439917979619        2.109840145687
W        25.091201776194      -65.854581653591        3.351720234882
W        28.227601980958      -67.433086856897        8.900940635285
W        25.091195522222      -73.298322318199       10.050360728316
W        28.227601924492      -59.950270291108        2.109840145687
W        25.091201782450      -54.364933965080        3.351720234882
W        28.227601987214      -55.943439168386        8.900940635285
W        25.091195528479      -61.808674629689       10.050360728316
W        28.227601930748      -48.460622602598        2.109840145687
W        25.091201788706      -42.875286276570        3.351720234882
W        28.227601993470      -44.453791479876        8.900940635285
W        25.091195534735      -50.319026941179       10.050360728316
W        28.227601937004      -36.970974914088        2.109840145687
W        25.091201794962      -31.385638588060        3.351720234882
W        28.227601999727      -32.964143791366        8.900940635285
W        25.091195540991      -38.829379252668       10.050360728316
W        28.227601943261      -25.481327225577        2.109840145687
W        25.091201801218      -19.895990899549        3.351720234882
W        28.227602005983      -21.474496102855        8.900940635285
W        25.091195547247      -27.339731564158       10.050360728316
W        28.227601949517      -13.991679537067        2.109840145687
W        25.091201807475       -8.406343211039        3.351720234882
W        28.227602012239       -9.984848414345        8.900940635285
W        25.091195390410      -15.850083875648       10.050360728316
W        28.227601955773       -2.502031848556        2.109840145687
W        25.091201813731        3.083304477471        3.351720234882
W        28.227602018495        1.504799274165        8.900940635285
W        25.091195396667       -4.360436187137       10.050360728316
W        28.227601968302        8.987616265071        2.109840145687
W        25.091201819987       14.572952165982        3.351720234882
W        28.227602024751       12.994446962676        8.900940635285
W        25.091195402923        7.129211501373       10.050360728316
W        28.227601974558       20.477263953581        2.109840145687
W        25.091201663150       26.062599854492        3.351720234882
W        28.227602031007       24.484094651186        8.900940635285
W        25.091195409179       18.618859189883       10.050360728316
W        28.227601980814       31.966911642092        2.109840145687
W        25.091201669406       37.552247543002        3.351720234882
W        28.227602037264       35.973742339697        8.900940635285
W        25.091195415435       30.108506878394       10.050360728316
W        28.227601987070       43.456559330602        2.109840145687
W        25.091201675663       49.041895231513        3.351720234882
W        28.227601880427       47.463390028207        8.900940635285
W        25.091195421691       41.598154566904       10.050360728316
W        28.227601993326       54.946207019112        2.109840145687
W        25.091201681919       60.531542920023        3.351720234882
W        28.227601886683       58.953037716717        8.900940635285
W        25.091195427947       53.087802255414       10.050360728316
W        28.227601999583       66.435854707623        2.109840145687
W        25.091201688175       72.021190608533        3.351720234882
W        28.227601892939       70.442685405228        8.900940635285
W        25.091195434204       64.577449943925       10.050360728316
W        28.227602005839       77.925502396133        2.109840145687
W        25.091201694431       83.510838297044        3.351720234882
W        28.227601899195       81.932333093738        8.900940635285
W        25.091195440460       76.067097632435       10.050360728316
W        28.227602012095       89.415150084643        2.109840145687
W        25.091201700687       95.000485985554        3.351720234882
W        28.227601905452       93.421980782248        8.900940635285
W        25.091195446716       87.556745320945       10.050360728316
W        28.227602018351      100.904797773154        2.109840145687
W        25.091201706943      106.490133674065        3.351720234882
W        28.227601911708      104.911628470759        8.900940635285
W        25.091195452972       99.046393009456       10.050360728316
W        28.227602024607      112.394445461664        2.109840145687
W        25.091201713200      117.979781362575        3.351720234882
W        28.227601917964      116.401276159269        8.900940635285
W        25.091195459228      110.536040697966       10.050360728316
W        28.227602030863      123.884093150174        2.109840145687
W        25.091201719456      129.469429051085        3.351720234882
W        28.227601924220      127.890923847779        8.900940635285
W        25.091195465484      122.025688386477       10.050360728316
W        28.227602037120      135.373740838685        2.109840145687
W        25.091201725712      140.959076739596        3.351720234882
W        28.227601930476      139.380571536290        8.900940635285
W        25.091195471741      133.515336074987       10.050360728316
W        28.227601880283      146.863388527195        2.109840145687
W        25.091201731968      152.448724428106        3.351720234882
W        28.227601936732      150.870219224800        8.900940635285
W        25.091195477997      145.004983763497       10.050360728316
W        28.227601886539      158.353036215705        2.109840145687
W        25.091201738224      163.938372116616        3.351720234882
W        28.227601942989      162.359866913310        8.900940635285
W        25.091195484253      156.494631452008       10.050360728316
W        28.227601892795      169.842683904216        2.109840145687
W        25.091201744480      175.428019805127        3.351720234882
W        28.227601949245      173.849514601821        8.900940635285
W        25.091195490509      167.984279140518       10.050360728316
W        28.227601899052      181.332331592726        2.109840145687
W        25.091201750737      186.917667493637        3.351720234882
W        28.227601955501      185.339162290331        8.900940635285
W        25.091195496765      179.473926829028       10.050360728316
W        28.227601905308      192.821979281237        2.109840145687
W        25.091201756993      198.407315182147        3.351720234882
W        28.227601961757      196.828809978842        8.900940635285
W        25.091195503021      190.963574517539       10.050360728316
W        28.227601911564      204.311626969747        2.109840145687
W        25.091201763249      209.896962870658        3.351720234882
W        28.227601968013      208.318457667352        8.900940635285
W        25.091195509278      202.453222206049       10.050360728316
W        21.954801483820     -209.315690241743        2.109840145687
W        18.818401335505     -203.730354340832        3.351720234882
W        21.954801540269     -205.308859544138        8.900940635285
W        18.818395081534     -211.174095005441       10.050360728316
W        21.954801490076     -197.826042553232        2.109840145687
W        18.818401341761     -192.240706652322        3.351720234882
W        21.954801546526     -193.819211855627        8.900940635285
W        18.818395094063     -199.684446891813       10.050360728316
W        21.954801496332     -186.336394864722        2.109840145687
W        18.818401348017     -180.751058963811        3.351720234882
W        21.954801552782     -182.329564167117        8.900940635285
W        18.818395100319     -188.194799203303       10.050360728316
W        21.954801502589     -174.846747176212        2.109840145687
W        18.818401354274     -169.261411275301        3.351720234882
W        21.954801559038     -170.839916478607        8.900940635285
W        18.818395106575     -176.705151514793       10.050360728316
W        21.954801508845     -163.357099487701        2.109840145687
W        18.818401360530     -157.771763586791        3.351720234882
W        21.954801565294     -159.350268790096        8.900940635285
W        18.818395112831     -165.215503826282       10.050360728316
W        21.954801515101     -151.867451799191        2.109840145687
W        18.818401366786     -146.282115898280        3.351720234882
W        21.954801571550     -147.860621101586        8.900940635285
W        18.818394955995     -153.725856137772       10.050360728316
W        21.954801521357     -140.377804110681        2.109840145687
W        18.818401379315     -134.792467784653        3.351720234882
W        21.954801577806     -136.370973413076        8.900940635285
W        18.818394962251     -142.236208449262       10.050360728316
W        21.954801527613     -128.888156422170        2.109840145687
W        18.818401385571     -123.302820096142        3.351720234882
W        21.954801584063     -124.881325724565        8.900940635285
W        18.818394968507     -130.746560760751       10.050360728316
W        21.954801533869     -117.398508733660        2.109840145687
W        18.818401228734     -111.813172407632        3.351720234882
W        21.954801590319     -113.391678036055        8.900940635285
W        18.818394974763     -119.256913072241       10.050360728316
W        21.954801540126     -105.908861045150        2.109840145687
W        18.818401234991     -100.323524719122        3.351720234882
W        21.954801596575     -101.902030347545        8.900940635285
W        18.818394981019     -107.767265383731       10.050360728316
W        21.954801546382      -94.419213356639        2.109840145687
W        18.818401241247      -88.833877030611        3.351720234882
W        21.954801446011      -90.412382233917        8.900940635285
W        18.818394987275      -96.277617695220       10.050360728316
W        21.954801552638      -82.929565668129        2.109840145687
W        18.818401247503      -77.344229342101        3.351720234882
W        21.954801452267      -78.922734545407        8.900940635285
W        18.818394993532      -84.787970006710       10.050360728316
W        21.954801558894      -71.439917979619        2.109840145687
W        18.818401253759      -65.854581653591        3.351720234882
W        21.954801458523      -67.433086856897        8.900940635285
W        18.818394999788      -73.298322318199       10.050360728316
W        21.954801565150      -59.950270291108        2.109840145687
W        18.818401260015      -54.364933965080        3.351720234882
W        21.954801464780      -55.943439168386        8.900940635285
W        18.818395006044      -61.808674629689       10.050360728316
W        21.954801571406      -48.460622602598        2.109840145687
W        18.818401266271      -42.875286276570        3.351720234882
W        21.954801471036      -44.453791479876        8.900940635285
W        18.818395012300      -50.319026941179       10.050360728316
W        21.954801577663      -36.970974914088        2.109840145687
W        18.818401272528      -31.385638588060        3.351720234882
W        21.954801477292      -32.964143791366        8.900940635285
W        18.818395018556      -38.829379252668       10.050360728316
W        21.954801583919      -25.481327225577        2.109840145687
W        18.818401278784      -19.895990899549        3.351720234882
W        21.954801483548      -21.474496102855        8.900940635285
W        18.818395024812      -27.339731564158       10.050360728316
W        21.954801590175      -13.991679537067        2.109840145687
W        18.818401285040       -8.406343211039        3.351720234882
W        21.954801489804       -9.984848414345        8.900940635285
W        18.818395031069      -15.850083875648       10.050360728316
W        21.954801596431       -2.502031848556        2.109840145687
W        18.818401291296        3.083304477471        3.351720234882
W        21.954801496060        1.504799274165        8.900940635285
W        18.818395037325       -4.360436187137       10.050360728316
W        21.954801445867        8.987616265071        2.109840145687
W        18.818401297552       14.572952165982        3.351720234882
W        21.954801502317       12.994446962676        8.900940635285
W        18.818395043581        7.129211501373       10.050360728316
W        21.954801452123       20.477263953581        2.109840145687
W        18.818401303808       26.062599854492        3.351720234882
W        21.954801508573       24.484094651186        8.900940635285
W        18.818395049837       18.618859189883       10.050360728316
W        21.954801458380       31.966911642092        2.109840145687
W        18.818401310065       37.552247543002        3.351720234882
W        21.954801514829       35.973742339697        8.900940635285
W        18.818395056093       30.108506878394       10.050360728316
W        21.954801464636       43.456559330602        2.109840145687
W        18.818401316321       49.041895231513        3.351720234882
W        21.954801521085       47.463390028207        8.900940635285
W        18.818395062350       41.598154566904       10.050360728316
W        21.954801470892       54.946207019112        2.109840145687
W        18.818401322577       60.531542920023        3.351720234882
W        21.954801527341       58.953037716717        8.900940635285
W        18.818395068606       53.087802255414       10.050360728316
W        21.954801477148       66.435854707623        2.109840145687
W        18.818401328833       72.021190608533        3.351720234882
W        21.954801533597       70.442685405228        8.900940635285
W        18.818395074862       64.577449943925       10.050360728316
W        21.954801483404       77.925502396133        2.109840145687
W        18.818401335089       83.510838297044        3.351720234882
W        21.954801539854       81.932333093738        8.900940635285
W        18.818395081118       76.067097632435       10.050360728316
W        21.954801489660       89.415150084643        2.109840145687
W        18.818401341345       95.000485985554        3.351720234882
W        21.954801546110       93.421980782248        8.900940635285
W        18.818395087374       87.556745320945       10.050360728316
W        21.954801495917      100.904797773154        2.109840145687
W        18.818401347602      106.490133674065        3.351720234882
W        21.954801552366      104.911628470759        8.900940635285
W        18.818395093630       99.046393009456       10.050360728316
W        21.954801502173      112.394445461664        2.109840145687
W        18.818401353858      117.979781362575        3.351720234882
W        21.954801558622      116.401276159269        8.900940635285
W        18.818395099887      110.536040697966       10.050360728316
W        21.954801508429      123.884093150174        2.109840145687
W        18.818401360114      129.469429051085        3.351720234882
W        21.954801564878      127.890923847779        8.900940635285
W        18.818395106143      122.025688386477       10.050360728316
W        21.954801514685      135.373740838685        2.109840145687
W        18.818401366370      140.959076739596        3.351720234882
W        21.954801571134      139.380571536290        8.900940635285
W        18.818394949306      133.515336074987       10.050360728316
W        21.954801520941      146.863388527195        2.109840145687
W        18.818401372626      152.448724428106        3.351720234882
W        21.954801577391      150.870219224800        8.900940635285
W        18.818394955562      145.004983763497       10.050360728316
W        21.954801527197      158.353036215705        2.109840145687
W        18.818401378882      163.938372116616        3.351720234882
W        21.954801583647      162.359866913310        8.900940635285
W        18.818394961818      156.494631452008       10.050360728316
W        21.954801533454      169.842683904216        2.109840145687
W        18.818401222046      175.428019805127        3.351720234882
W        21.954801589903      173.849514601821        8.900940635285
W        18.818394968075      167.984279140518       10.050360728316
W        21.954801539710      181.332331592726        2.109840145687
W        18.818401228302      186.917667493637        3.351720234882
W        21.954801596159      185.339162290331        8.900940635285
W        18.818394974331      179.473926829028       10.050360728316
W        21.954801545966      192.821979281237        2.109840145687
W        18.818401234558      198.407315182147        3.351720234882
W        21.954801439323      196.828809978842        8.900940635285
W        18.818394980587      190.963574517539       10.050360728316
W        21.954801552222      204.311626969747        2.109840145687
W        18.818401240814      209.896962870658        3.351720234882
W        21.954801445579      208.318457667352        8.900940635285
W        18.818394986843      202.453222206049       10.050360728316
W        15.682001124478     -209.315690241743        2.109840145687
W        12.545600813070     -203.730354340832        3.351720234882
W        15.682001017835     -205.308859544138        8.900940635285
W        12.545594559099     -211.174095005441       10.050360728316
W        15.682001130734     -197.826042553232        2.109840145687
W        12.545600819327     -192.240706652322        3.351720234882
W        15.682001024091     -193.819211855627        8.900940635285
W        12.545594571628     -199.684446891813       10.050360728316
W        15.682001136991     -186.336394864722        2.109840145687
W        12.545600825583     -180.751058963811        3.351720234882
W        15.682001030347     -182.329564167117        8.900940635285
W        12.545594577884     -188.194799203303       10.050360728316
W        15.682001143247     -174.846747176212        2.109840145687
W        12.545600831839     -169.261411275301        3.351720234882
W        15.682001036603     -170.839916478607        8.900940635285
W        12.545594584141     -176.705151514793       10.050360728316
W        15.682001149503     -163.357099487701        2.109840145687
W        12.545600838095     -157.771763586791        3.351720234882
W        15.682001042860     -159.350268790096        8.900940635285
W        12.545594590397     -165.215503826282       10.050360728316
W        15.682001155759     -151.867451799191        2.109840145687
W        12.545600844351     -146.282115898280        3.351720234882
W        15.682001049116     -147.860621101586        8.900940635285
W        12.545594596653     -153.725856137772       10.050360728316
W        15.682001162015     -140.377804110681        2.109840145687
W        12.545600856880     -134.792467784653        3.351720234882
W        15.682001055372     -136.370973413076        8.900940635285
W        12.545594602909     -142.236208449262       10.050360728316
W        15.682001005179     -128.888156422170        2.109840145687
W        12.545600863136     -123.302820096142        3.351720234882
W        15.682001061628     -124.881325724565        8.900940635285
W        12.545594609165     -130.746560760751       10.050360728316
W        15.682001011435     -117.398508733660        2.109840145687
W        12.545600869393     -111.813172407632        3.351720234882
W        15.682001067884     -113.391678036055        8.900940635285
W        12.545594615421     -119.256913072241       10.050360728316
W        15.682001017691     -105.908861045150        2.109840145687
W        12.545600875649     -100.323524719122        3.351720234882
W        15.682001074140     -101.902030347545        8.900940635285
W        12.545594621678     -107.767265383731       10.050360728316
W        15.682001023947      -94.419213356639        2.109840145687
W        12.545600881905      -88.833877030611        3.351720234882
W        15.682001086669      -90.412382233917        8.900940635285
W        12.545594627934      -96.277617695220       10.050360728316
W        15.682001030203      -82.929565668129        2.109840145687
W        12.545600888161      -77.344229342101        3.351720234882
W        15.682001092926      -78.922734545407        8.900940635285
W        12.545594634190      -84.787970006710       10.050360728316
W        15.682001036459      -71.439917979619        2.109840145687
W        12.545600894417      -65.854581653591        3.351720234882
W        15.682001099182      -67.433086856897        8.900940635285
W        12.545594640446      -73.298322318199       10.050360728316
W        15.682001042716      -59.950270291108        2.109840145687
W        12.545600900673      -54.364933965080        3.351720234882
W        15.682001105438      -55.943439168386        8.900940635285
W        12.545594646702      -61.808674629689       10.050360728316
W        15.682001048972      -48.460622602598        2.109840145687
W        12.545600906930      -42.875286276570        3.351720234882
W        15.682001111694      -44.453791479876        8.900940635285
W        12.545594652958      -50.319026941179       10.050360728316
W        15.682001055228      -36.970974914088        2.109840145687
W        12.545600913186      -31.385638588060        3.351720234882
W        15.682001117950      -32.964143791366        8.900940635285
W        12.545594659215      -38.829379252668       10.050360728316
W        15.682001061484      -25.481327225577        2.109840145687
W        12.545600919442      -19.895990899549        3.351720234882
W        15.682001124206      -21.474496102855        8.900940635285
W        12.545594665471      -27.339731564158       10.050360728316
W        15.682001067740      -13.991679537067        2.109840145687
W        12.545600925698       -8.406343211039        3.351720234882
W        15.682001130463       -9.984848414345        8.900940635285
W        12.545594671727      -15.850083875648       10.050360728316
W        15.682001073996       -2.502031848556        2.109840145687
W        12.545600931954        3.083304477471        3.351720234882
W        15.682001136719        1.504799274165        8.900940635285
W        12.545594677983       -4.360436187137       10.050360728316
W        15.682001086525        8.987616265071        2.109840145687
W        12.545600938210       14.572952165982        3.351720234882
W        15.682001142975       12.994446962676        8.900940635285
W        12.545594521146        7.129211501373       10.050360728316
W        15.682001092782       20.477263953581        2.109840145687
W        12.545600944467       26.062599854492        3.351720234882
W        15.682001149231       24.484094651186        8.900940635285
W        12.545594527403       18.618859189883       10.050360728316
W        15.682001099038       31.966911642092        2.109840145687
W        12.545600950723       37.552247543002        3.351720234882
W        15.682001155487       35.973742339697        8.900940635285
W        12.545594533659       30.108506878394       10.050360728316
W        15.682001105294       43.456559330602        2.109840145687
W        12.545600793886       49.041895231513        3.351720234882
W        15.682001161743       47.463390028207        8.900940635285
W        12.545594539915       41.598154566904       10.050360728316
W        15.682001111550       54.946207019112        2.109840145687
W        12.545600800142       60.531542920023        3.351720234882
W        15.682001168000       58.953037716717        8.900940635285
W        12.545594546171       53.087802255414       10.050360728316
W        15.682001117806       66.435854707623        2.109840145687
W        12.545600806398       72.021190608533        3.351720234882
W        15.682001011163       70.442685405228        8.900940635285
W        12.545594552427       64.577449943925       10.050360728316
W        15.682001124062       77.925502396133        2.109840145687
W        12.545600812655       83.510838297044        3.351720234882
W        15.682001017419       81.932333093738        8.900940635285
W        12.545594558683       76.067097632435       10.050360728316
W        15.682001130319       89.415150084643        2.109840145687
W        12.545600818911       95.000485985554        3.351720234882
W        15.682001023675       93.421980782248        8.900940635285
W        12.545594564940       87.556745320945       10.050360728316
W        15.682001136575      100.904797773154        2.109840145687
W        12.545600825167      106.490133674065        3.351720234882
W        15.682001029931      104.911628470759        8.900940635285
W        12.545594571196       99.046393009456       10.050360728316
W        15.682001142831      112.394445461664        2.109840145687
W        12.545600831423      117.979781362575        3.351720234882
W        15.682001036188      116.401276159269        8.900940635285
W        12.545594577452      110.536040697966       10.050360728316
W        15.682001149087      123.884093150174        2.109840145687
W        12.545600837679      129.469429051085        3.351720234882
W        15.682001042444      127.890923847779        8.900940635285
W        12.545594583708      122.025688386477       10.050360728316
W        15.682001155343      135.373740838685        2.109840145687
W        12.545600843936      140.959076739596        3.351720234882
W        15.682001048700      139.380571536290        8.900940635285
W        12.545594589964      133.515336074987       10.050360728316
W        15.682001161599      146.863388527195        2.109840145687
W        12.545600850192      152.448724428106        3.351720234882
W        15.682001054956      150.870219224800        8.900940635285
W        12.545594596220      145.004983763497       10.050360728316
W        15.682001167856      158.353036215705        2.109840145687
W        12.545600856448      163.938372116616        3.351720234882
W        15.682001061212      162.359866913310        8.900940635285
W        12.545594602477      156.494631452008       10.050360728316
W        15.682001011019      169.842683904216        2.109840145687
W        12.545600862704      175.428019805127        3.351720234882
W        15.682001067468      173.849514601821        8.900940635285
W        12.545594608733      167.984279140518       10.050360728316
W        15.682001017275      181.332331592726        2.109840145687
W        12.545600868960      186.917667493637        3.351720234882
W        15.682001073725      185.339162290331        8.900940635285
W        12.545594614989      179.473926829028       10.050360728316
W        15.682001023531      192.821979281237        2.109840145687
W        12.545600875216      198.407315182147        3.351720234882
W        15.682001079981      196.828809978842        8.900940635285
W        12.545594621245      190.963574517539       10.050360728316
W        15.682001029787      204.311626969747        2.109840145687
W        12.545600881473      209.896962870658        3.351720234882
W        15.682001086237      208.318457667352        8.900940635285
W        12.545594627501      202.453222206049       10.050360728316
W         9.409200602044     -209.315690241743        2.109840145687
W         6.272800453729     -203.730354340832        3.351720234882
W         9.409200658493     -205.308859544138        8.900940635285
W         6.272794199757     -211.174095005441       10.050360728316
W         9.409200608300     -197.826042553232        2.109840145687
W         6.272800459985     -192.240706652322        3.351720234882
W         9.409200664749     -193.819211855627        8.900940635285
W         6.272794212286     -199.684446891813       10.050360728316
W         9.409200614556     -186.336394864722        2.109840145687
W         6.272800466241     -180.751058963811        3.351720234882
W         9.409200671005     -182.329564167117        8.900940635285
W         6.272794218543     -188.194799203303       10.050360728316
W         9.409200620812     -174.846747176212        2.109840145687
W         6.272800472497     -169.261411275301        3.351720234882
W         9.409200677262     -170.839916478607        8.900940635285
W         6.272794224799     -176.705151514793       10.050360728316
W         9.409200627068     -163.357099487701        2.109840145687
W         6.272800478753     -157.771763586791        3.351720234882
W         9.409200683518     -159.350268790096        8.900940635285
W         6.272794231055     -165.215503826282       10.050360728316
W         9.409200633325     -151.867451799191        2.109840145687
W         6.272800485010     -146.282115898280        3.351720234882
W         9.409200689774     -147.860621101586        8.900940635285
W         6.272794237311     -153.725856137772       10.050360728316
W         9.409200639581     -140.377804110681        2.109840145687
W         6.272800497539     -134.792467784653        3.351720234882
W         9.409200696030     -136.370973413076        8.900940635285
W         6.272794243567     -142.236208449262       10.050360728316
W         9.409200645837     -128.888156422170        2.109840145687
W         6.272800503795     -123.302820096142        3.351720234882
W         9.409200702286     -124.881325724565        8.900940635285
W         6.272794086731     -130.746560760751       10.050360728316
W         9.409200652093     -117.398508733660        2.109840145687
W         6.272800510051     -111.813172407632        3.351720234882
W         9.409200708542     -113.391678036055        8.900940635285
W         6.272794092987     -119.256913072241       10.050360728316
W         9.409200658349     -105.908861045150        2.109840145687
W         6.272800516307     -100.323524719122        3.351720234882
W         9.409200714799     -101.902030347545        8.900940635285
W         6.272794099243     -107.767265383731       10.050360728316
W         9.409200664605      -94.419213356639        2.109840145687
W         6.272800359470      -88.833877030611        3.351720234882
W         9.409200727328      -90.412382233917        8.900940635285
W         6.272794105499      -96.277617695220       10.050360728316
W         9.409200670862      -82.929565668129        2.109840145687
W         6.272800365727      -77.344229342101        3.351720234882
W         9.409200733584      -78.922734545407        8.900940635285
W         6.272794111755      -84.787970006710       10.050360728316
W         9.409200677118      -71.439917979619        2.109840145687
W         6.272800371983      -65.854581653591        3.351720234882
W         9.409200576747      -67.433086856897        8.900940635285
W         6.272794118011      -73.298322318199       10.050360728316
W         9.409200683374      -59.950270291108        2.109840145687
W         6.272800378239      -54.364933965080        3.351720234882
W         9.409200583003      -55.943439168386        8.900940635285
W         6.272794124268      -61.808674629689       10.050360728316
W         9.409200689630      -48.460622602598        2.109840145687
W         6.272800384495      -42.875286276570        3.351720234882
W         9.409200589259      -44.453791479876        8.900940635285
W         6.272794130524      -50.319026941179       10.050360728316
W         9.409200695886      -36.970974914088        2.109840145687
W         6.272800390751      -31.385638588060        3.351720234882
W         9.409200595516      -32.964143791366        8.900940635285
W         6.272794136780      -38.829379252668       10.050360728316
W         9.409200702142      -25.481327225577        2.109840145687
W         6.272800397007      -19.895990899549        3.351720234882
W         9.409200601772      -21.474496102855        8.900940635285
W         6.272794143036      -27.339731564158       10.050360728316
W         9.409200708399      -13.991679537067        2.109840145687
W         6.272800403264       -8.406343211039        3.351720234882
W         9.409200608028       -9.984848414345        8.900940635285
W         6.272794149292      -15.850083875648       10.050360728316
W         9.409200714655       -2.502031848556        2.109840145687
W         6.272800409520        3.083304477471        3.351720234882
W         9.409200614284        1.504799274165        8.900940635285
W         6.272794155548       -4.360436187137       10.050360728316
W         9.409200727184        8.987616265071        2.109840145687
W         6.272800415776       14.572952165982        3.351720234882
W         9.409200620540       12.994446962676        8.900940635285
W         6.272794161805        7.129211501373       10.050360728316
W         9.409200733440       20.477263953581        2.109840145687
W         6.272800422032       26.062599854492        3.351720234882
W         9.409200626796       24.484094651186        8.900940635285
W         6.272794168061       18.618859189883       10.050360728316
W         9.409200576603       31.966911642092        2.109840145687
W         6.272800428288       37.552247543002        3.351720234882
W         9.409200633053       35.973742339697        8.900940635285
W         6.272794174317       30.108506878394       10.050360728316
W         9.409200582859       43.456559330602        2.109840145687
W         6.272800434544       49.041895231513        3.351720234882
W         9.409200639309       47.463390028207        8.900940635285
W         6.272794180573       41.598154566904       10.050360728316
W         9.409200589116       54.946207019112        2.109840145687
W         6.272800440801       60.531542920023        3.351720234882
W         9.409200645565       58.953037716717        8.900940635285
W         6.272794186829       53.087802255414       10.050360728316
W         9.409200595372       66.435854707623        2.109840145687
W         6.272800447057       72.021190608533        3.351720234882
W         9.409200651821       70.442685405228        8.900940635285
W         6.272794193085       64.577449943925       10.050360728316
W         9.409200601628       77.925502396133        2.109840145687
W         6.272800453313       83.510838297044        3.351720234882
W         9.409200658077       81.932333093738        8.900940635285
W         6.272794199342       76.067097632435       10.050360728316
W         9.409200607884       89.415150084643        2.109840145687
W         6.272800459569       95.000485985554        3.351720234882
W         9.409200664333       93.421980782248        8.900940635285
W         6.272794205598       87.556745320945       10.050360728316
W         9.409200614140      100.904797773154        2.109840145687
W         6.272800465825      106.490133674065        3.351720234882
W         9.409200670590      104.911628470759        8.900940635285
W         6.272794211854       99.046393009456       10.050360728316
W         9.409200620396      112.394445461664        2.109840145687
W         6.272800472081      117.979781362575        3.351720234882
W         9.409200676846      116.401276159269        8.900940635285
W         6.272794218110      110.536040697966       10.050360728316
W         9.409200626653      123.884093150174        2.109840145687
W         6.272800478338      129.469429051085        3.351720234882
W         9.409200683102      127.890923847779        8.900940635285
W         6.272794224366      122.025688386477       10.050360728316
W         9.409200632909      135.373740838685        2.109840145687
W         6.272800484594      140.959076739596        3.351720234882
W         9.409200689358      139.380571536290        8.900940635285
W         6.272794230622      133.515336074987       10.050360728316
W         9.409200639165      146.863388527195        2.109840145687
W         6.272800490850      152.448724428106        3.351720234882
W         9.409200695614      150.870219224800        8.900940635285
W         6.272794236879      145.004983763497       10.050360728316
W         9.409200645421      158.353036215705        2.109840145687
W         6.272800497106      163.938372116616        3.351720234882
W         9.409200701870      162.359866913310        8.900940635285
W         6.272794080042      156.494631452008       10.050360728316
W         9.409200651677      169.842683904216        2.109840145687
W         6.272800503362      175.428019805127        3.351720234882
W         9.409200708127      173.849514601821        8.900940635285
W         6.272794086298      167.984279140518       10.050360728316
W         9.409200657933      181.332331592726        2.109840145687
W         6.272800509618      186.917667493637        3.351720234882
W         9.409200714383      185.339162290331        8.900940635285
W         6.272794092554      179.473926829028       10.050360728316
W         9.409200664190      192.821979281237        2.109840145687
W         6.272800352782      198.407315182147        3.351720234882
W         9.409200720639      196.828809978842        8.900940635285
W         6.272794098811      190.963574517539       10.050360728316
W         9.409200670446      204.311626969747        2.109840145687
W         6.272800359038      209.896962870658        3.351720234882
W         9.409200726895      208.318457667352        8.900940635285
W         6.272794105067      202.453222206049       10.050360728316
W         3.136400242702     -209.315690241743        2.109840145687
W        -0.000000068706     -203.730354340832        3.351720234882
W         3.136400136058     -205.308859544138        8.900940635285
W        -0.000006322677     -211.174095005441       10.050360728316
W         3.136400248958     -197.826042553232        2.109840145687
W        -0.000000062450     -192.240706652322        3.351720234882
W         3.136400142315     -193.819211855627        8.900940635285
W        -0.000006310148     -199.684446891813       10.050360728316
W         3.136400255214     -186.336394864722        2.109840145687
W        -0.000000056194     -180.751058963811        3.351720234882
W         3.136400148571     -182.329564167117        8.900940635285
W        -0.000006303892     -188.194799203303       10.050360728316
W         3.136400261470     -174.846747176212        2.109840145687
W        -0.000000049937     -169.261411275301        3.351720234882
W         3.136400154827     -170.839916478607        8.900940635285
W        -0.000006297636     -176.705151514793       10.050360728316
W         3.136400267727     -163.357099487701        2.109840145687
W        -0.000000043681     -157.771763586791        3.351720234882
W         3.136400161083     -159.350268790096        8.900940635285
W        -0.000006291380     -165.215503826282       10.050360728316
W         3.136400273983     -151.867451799191        2.109840145687
W        -0.000000037425     -146.282115898280        3.351720234882
W         3.136400167339     -147.860621101586        8.900940635285
W        -0.000006285124     -153.725856137772       10.050360728316
W         3.136400280239     -140.377804110681        2.109840145687
W        -0.000000024896     -134.792467784653        3.351720234882
W         3.136400173595     -136.370973413076        8.900940635285
W        -0.000006278867     -142.236208449262       10.050360728316
W         3.136400286495     -128.888156422170        2.109840145687
W        -0.000000018640     -123.302820096142        3.351720234882
W         3.136400179852     -124.881325724565        8.900940635285
W        -0.000006272611     -130.746560760751       10.050360728316
W         3.136400292751     -117.398508733660        2.109840145687
W        -0.000000012384     -111.813172407632        3.351720234882
W         3.136400186108     -113.391678036055        8.900940635285
W        -0.000006266355     -119.256913072241       10.050360728316
W         3.136400135915     -105.908861045150        2.109840145687
W        -0.000000006128     -100.323524719122        3.351720234882
W         3.136400192364     -101.902030347545        8.900940635285
W        -0.000006260099     -107.767265383731       10.050360728316
W         3.136400142171      -94.419213356639        2.109840145687
W         0.000000000129      -88.833877030611        3.351720234882
W         3.136400204893      -90.412382233917        8.900940635285
W        -0.000006253843      -96.277617695220       10.050360728316
W         3.136400148427      -82.929565668129        2.109840145687
W         0.000000006385      -77.344229342101        3.351720234882
W         3.136400211149      -78.922734545407        8.900940635285
W        -0.000006247586      -84.787970006710       10.050360728316
W         3.136400154683      -71.439917979619        2.109840145687
W         0.000000012641      -65.854581653591        3.351720234882
W         3.136400217405      -67.433086856897        8.900940635285
W        -0.000006241330      -73.298322318199       10.050360728316
W         3.136400160939      -59.950270291108        2.109840145687
W         0.000000018897      -54.364933965080        3.351720234882
W         3.136400223661      -55.943439168386        8.900940635285
W        -0.000006235074      -61.808674629689       10.050360728316
W         3.136400167195      -48.460622602598        2.109840145687
W         0.000000025153      -42.875286276570        3.351720234882
W         3.136400229918      -44.453791479876        8.900940635285
W        -0.000006228818      -50.319026941179       10.050360728316
W         3.136400173452      -36.970974914088        2.109840145687
W         0.000000031409      -31.385638588060        3.351720234882
W         3.136400236174      -32.964143791366        8.900940635285
W        -0.000006222562      -38.829379252668       10.050360728316
W         3.136400179708      -25.481327225577        2.109840145687
W         0.000000037666      -19.895990899549        3.351720234882
W         3.136400242430      -21.474496102855        8.900940635285
W        -0.000006216306      -27.339731564158       10.050360728316
W         3.136400185964      -13.991679537067        2.109840145687
W         0.000000043922       -8.406343211039        3.351720234882
W         3.136400248686       -9.984848414345        8.900940635285
W        -0.000006210049      -15.850083875648       10.050360728316
W         3.136400192220       -2.502031848556        2.109840145687
W         0.000000050178        3.083304477471        3.351720234882
W         3.136400254942        1.504799274165        8.900940635285
W        -0.000006203793       -4.360436187137       10.050360728316
W         3.136400204749        8.987616265071        2.109840145687
W         0.000000056434       14.572952165982        3.351720234882
W         3.136400261198       12.994446962676        8.900940635285
W        -0.000006197537        7.129211501373       10.050360728316
W         3.136400211005       20.477263953581        2.109840145687
W         0.000000062690       26.062599854492        3.351720234882
W         3.136400267455       24.484094651186        8.900940635285
W        -0.000006354374       18.618859189883       10.050360728316
W         3.136400217261       31.966911642092        2.109840145687
W         0.000000068946       37.552247543002        3.351720234882
W         3.136400273711       35.973742339697        8.900940635285
W        -0.000006348118       30.108506878394       10.050360728316
W         3.136400223518       43.456559330602        2.109840145687
W         0.000000075203       49.041895231513        3.351720234882
W         3.136400279967       47.463390028207        8.900940635285
W        -0.000006341861       41.598154566904       10.050360728316
W         3.136400229774       54.946207019112        2.109840145687
W         0.000000081459       60.531542920023        3.351720234882
W         3.136400286223       58.953037716717        8.900940635285
W        -0.000006335605       53.087802255414       10.050360728316
W         3.136400236030       66.435854707623        2.109840145687
W        -0.000000075378       72.021190608533        3.351720234882
W         3.136400292479       70.442685405228        8.900940635285
W        -0.000006329349       64.577449943925       10.050360728316
W         3.136400242286       77.925502396133        2.109840145687
W        -0.000000069122       83.510838297044        3.351720234882
W         3.136400298735       81.932333093738        8.900940635285
W        -0.000006323093       76.067097632435       10.050360728316
W         3.136400248542       89.415150084643        2.109840145687
W        -0.000000062866       95.000485985554        3.351720234882
W         3.136400141899       93.421980782248        8.900940635285
W        -0.000006316837       87.556745320945       10.050360728316
W         3.136400254798      100.904797773154        2.109840145687
W        -0.000000056609      106.490133674065        3.351720234882
W         3.136400148155      104.911628470759        8.900940635285
W        -0.000006310581       99.046393009456       10.050360728316
W         3.136400261055      112.394445461664        2.109840145687
W        -0.000000050353      117.979781362575        3.351720234882
W         3.136400154411      116.401276159269        8.900940635285
W        -0.000006304324      110.536040697966       10.050360728316
W         3.136400267311      123.884093150174        2.109840145687
W        -0.000000044097      129.469429051085        3.351720234882
W         3.136400160667      127.890923847779        8.900940635285
W        -0.000006298068      122.025688386477       10.050360728316
W         3.136400273567      135.373740838685        2.109840145687
W        -0.000000037841      140.959076739596        3.351720234882
W         3.136400166924      139.380571536290        8.900940635285
W        -0.000006291812      133.515336074987       10.050360728316
W         3.136400279823      146.863388527195        2.109840145687
W        -0.000000031585      152.448724428106        3.351720234882
W         3.136400173180      150.870219224800        8.900940635285
W        -0.000006285556      145.004983763497       10.050360728316
W         3.136400286079      158.353036215705        2.109840145687
W        -0.000000025329      163.938372116616        3.351720234882
W         3.136400179436      162.359866913310        8.900940635285
W        -0.000006279300      156.494631452008       10.050360728316
W         3.136400292335      169.842683904216        2.109840145687
W        -0.000000019072      175.428019805127        3.351720234882
W         3.136400185692      173.849514601821        8.900940635285
W        -0.000006273044      167.984279140518       10.050360728316
W         3.136400298592      181.332331592726        2.109840145687
W        -0.000000012816      186.917667493637        3.351720234882
W         3.136400191948      185.339162290331        8.900940635285
W        -0.000006266787      179.473926829028       10.050360728316
W         3.136400141755      192.821979281237        2.109840145687
W        -0.000000006560      198.407315182147        3.351720234882
W         3.136400198204      196.828809978842        8.900940635285
W        -0.000006260531      190.963574517539       10.050360728316
W         3.136400148011      204.311626969747        2.109840145687
W        -0.000000000304      209.896962870658        3.351720234882
W         3.136400204461      208.318457667352        8.900940635285
W        -0.000006254275      202.453222206049       10.050360728316
W        -3.136400279733     -209.315690241743        2.109840145687
W        -6.272800428048     -203.730354340832        3.351720234882
W        -3.136400223283     -205.308859544138        8.900940635285
W        -6.272806682019     -211.174095005441       10.050360728316
W        -3.136400273477     -197.826042553232        2.109840145687
W        -6.272800421792     -192.240706652322        3.351720234882
W        -3.136400217027     -193.819211855627        8.900940635285
W        -6.272806669490     -199.684446891813       10.050360728316
W        -3.136400267220     -186.336394864722        2.109840145687
W        -6.272800415535     -180.751058963811        3.351720234882
W        -3.136400210771     -182.329564167117        8.900940635285
W        -6.272806663234     -188.194799203303       10.050360728316
W        -3.136400260964     -174.846747176212        2.109840145687
W        -6.272800409279     -169.261411275301        3.351720234882
W        -3.136400204515     -170.839916478607        8.900940635285
W        -6.272806656978     -176.705151514793       10.050360728316
W        -3.136400254708     -163.357099487701        2.109840145687
W        -6.272800403023     -157.771763586791        3.351720234882
W        -3.136400198259     -159.350268790096        8.900940635285
W        -6.272806650721     -165.215503826282       10.050360728316
W        -3.136400248452     -151.867451799191        2.109840145687
W        -6.272800396767     -146.282115898280        3.351720234882
W        -3.136400192002     -147.860621101586        8.900940635285
W        -6.272806644465     -153.725856137772       10.050360728316
W        -3.136400242196     -140.377804110681        2.109840145687
W        -6.272800384238     -134.792467784653        3.351720234882
W        -3.136400185746     -136.370973413076        8.900940635285
W        -6.272806638209     -142.236208449262       10.050360728316
W        -3.136400235940     -128.888156422170        2.109840145687
W        -6.272800377982     -123.302820096142        3.351720234882
W        -3.136400179490     -124.881325724565        8.900940635285
W        -6.272806631953     -130.746560760751       10.050360728316
W        -3.136400229683     -117.398508733660        2.109840145687
W        -6.272800371726     -111.813172407632        3.351720234882
W        -3.136400173234     -113.391678036055        8.900940635285
W        -6.272806625697     -119.256913072241       10.050360728316
W        -3.136400223427     -105.908861045150        2.109840145687
W        -6.272800365469     -100.323524719122        3.351720234882
W        -3.136400166978     -101.902030347545        8.900940635285
W        -6.272806782533     -107.767265383731       10.050360728316
W        -3.136400217171      -94.419213356639        2.109840145687
W        -6.272800359213      -88.833877030611        3.351720234882
W        -3.136400154449      -90.412382233917        8.900940635285
W        -6.272806776277      -96.277617695220       10.050360728316
W        -3.136400210915      -82.929565668129        2.109840145687
W        -6.272800352957      -77.344229342101        3.351720234882
W        -3.136400148193      -78.922734545407        8.900940635285
W        -6.272806770021      -84.787970006710       10.050360728316
W        -3.136400204659      -71.439917979619        2.109840145687
W        -6.272800509794      -65.854581653591        3.351720234882
W        -3.136400141936      -67.433086856897        8.900940635285
W        -6.272806763765      -73.298322318199       10.050360728316
W        -3.136400198403      -59.950270291108        2.109840145687
W        -6.272800503537      -54.364933965080        3.351720234882
W        -3.136400135680      -55.943439168386        8.900940635285
W        -6.272806757509      -61.808674629689       10.050360728316
W        -3.136400192146      -48.460622602598        2.109840145687
W        -6.272800497281      -42.875286276570        3.351720234882
W        -3.136400292517      -44.453791479876        8.900940635285
W        -6.272806751253      -50.319026941179       10.050360728316
W        -3.136400185890      -36.970974914088        2.109840145687
W        -6.272800491025      -31.385638588060        3.351720234882
W        -3.136400286261      -32.964143791366        8.900940635285
W        -6.272806744996      -38.829379252668       10.050360728316
W        -3.136400179634      -25.481327225577        2.109840145687
W        -6.272800484769      -19.895990899549        3.351720234882
W        -3.136400280005      -21.474496102855        8.900940635285
W        -6.272806738740      -27.339731564158       10.050360728316
W        -3.136400173378      -13.991679537067        2.109840145687
W        -6.272800478513       -8.406343211039        3.351720234882
W        -3.136400273748       -9.984848414345        8.900940635285
W        -6.272806732484      -15.850083875648       10.050360728316
W        -3.136400167122       -2.502031848556        2.109840145687
W        -6.272800472257        3.083304477471        3.351720234882
W        -3.136400267492        1.504799274165        8.900940635285
W        -6.272806726228       -4.360436187137       10.050360728316
W        -3.136400154593        8.987616265071        2.109840145687
W        -6.272800466000       14.572952165982        3.351720234882
W        -3.136400261236       12.994446962676        8.900940635285
W        -6.272806719972        7.129211501373       10.050360728316
W        -3.136400148337       20.477263953581        2.109840145687
W        -6.272800459744       26.062599854492        3.351720234882
W        -3.136400254980       24.484094651186        8.900940635285
W        -6.272806713716       18.618859189883       10.050360728316
W        -3.136400142080       31.966911642092        2.109840145687
W        -6.272800453488       37.552247543002        3.351720234882
W        -3.136400248724       35.973742339697        8.900940635285
W        -6.272806707459       30.108506878394       10.050360728316
W        -3.136400135824       43.456559330602        2.109840145687
W        -6.272800447232       49.041895231513        3.351720234882
W        -3.136400242468       47.463390028207        8.900940635285
W        -6.272806701203       41.598154566904       10.050360728316
W        -3.136400292661       54.946207019112        2.109840145687
W        -6.272800440976       60.531542920023        3.351720234882
W        -3.136400236211       58.953037716717        8.900940635285
W        -6.272806694947       53.087802255414       10.050360728316
W        -3.136400286405       66.435854707623        2.109840145687
W        -6.272800434720       72.021190608533        3.351720234882
W        -3.136400229955       70.442685405228        8.900940635285
W        -6.272806688691       64.577449943925       10.050360728316
W        -3.136400280149       77.925502396133        2.109840145687
W        -6.272800428463       83.510838297044        3.351720234882
W        -3.136400223699       81.932333093738        8.900940635285
W        -6.272806682435       76.067097632435       10.050360728316
W        -3.136400273892       89.415150084643        2.109840145687
W        -6.272800422207       95.000485985554        3.351720234882
W        -3.136400217443       93.421980782248        8.900940635285
W        -6.272806676179       87.556745320945       10.050360728316
W        -3.136400267636      100.904797773154        2.109840145687
W        -6.272800415951      106.490133674065        3.351720234882
W        -3.136400211187      104.911628470759        8.900940635285
W        -6.272806669922       99.046393009456       10.050360728316
W        -3.136400261380      112.394445461664        2.109840145687
W        -6.272800409695      117.979781362575        3.351720234882
W        -3.136400204931      116.401276159269        8.900940635285
W        -6.272806663666      110.536040697966       10.050360728316
W        -3.136400255124      123.884093150174        2.109840145687
W        -6.272800403439      129.469429051085        3.351720234882
W        -3.136400198674      127.890923847779        8.900940635285
W        -6.272806657410      122.025688386477       10.050360728316
W        -3.136400248868      135.373740838685        2.109840145687
W        -6.272800397183      140.959076739596        3.351720234882
W        -3.136400192418      139.380571536290        8.900940635285
W        -6.272806651154      133.515336074987       10.050360728316
W        -3.136400242612      146.863388527195        2.109840145687
W        -6.272800390926      152.448724428106        3.351720234882
W        -3.136400186162      150.870219224800        8.900940635285
W        -6.272806644898      145.004983763497       10.050360728316
W        -3.136400236355      158.353036215705        2.109840145687
W        -6.272800384670      163.938372116616        3.351720234882
W        -3.136400179906      162.359866913310        8.900940635285
W        -6.272806638642      156.494631452008       10.050360728316
W        -3.136400230099      169.842683904216        2.109840145687
W        -6.272800378414      175.428019805127        3.351720234882
W        -3.136400173650      173.849514601821        8.900940635285
W        -6.272806632385      167.984279140518       10.050360728316
W        -3.136400223843      181.332331592726        2.109840145687
W        -6.272800372158      186.917667493637        3.351720234882
W        -3.136400167394      185.339162290331        8.900940635285
W        -6.272806789222      179.473926829028       10.050360728316
W        -3.136400217587      192.821979281237        2.109840145687
W        -6.272800365902      198.407315182147        3.351720234882
W        -3.136400161137      196.828809978842        8.900940635285
W        -6.272806782966      190.963574517539       10.050360728316
W        -3.136400211331      204.311626969747        2.109840145687
W        -6.272800359646      209.896962870658        3.351720234882
W        -3.136400154881      208.318457667352        8.900940635285
W        -6.272806776710      202.453222206049       10.050360728316
W        -9.409200639074     -209.315690241743        2.109840145687
W       -12.545600950482     -203.730354340832        3.351720234882
W        -9.409200582625     -205.308859544138        8.900940635285
W       -12.545607204454     -211.174095005441       10.050360728316
W        -9.409200632818     -197.826042553232        2.109840145687
W       -12.545600944226     -192.240706652322        3.351720234882
W        -9.409200576369     -193.819211855627        8.900940635285
W       -12.545607191925     -199.684446891813       10.050360728316
W        -9.409200626562     -186.336394864722        2.109840145687
W       -12.545600937970     -180.751058963811        3.351720234882
W        -9.409200733206     -182.329564167117        8.900940635285
W       -12.545607185668     -188.194799203303       10.050360728316
W        -9.409200620306     -174.846747176212        2.109840145687
W       -12.545600931714     -169.261411275301        3.351720234882
W        -9.409200726949     -170.839916478607        8.900940635285
W       -12.545607179412     -176.705151514793       10.050360728316
W        -9.409200614050     -163.357099487701        2.109840145687
W       -12.545600925458     -157.771763586791        3.351720234882
W        -9.409200720693     -159.350268790096        8.900940635285
W       -12.545607173156     -165.215503826282       10.050360728316
W        -9.409200607794     -151.867451799191        2.109840145687
W       -12.545600919201     -146.282115898280        3.351720234882
W        -9.409200714437     -147.860621101586        8.900940635285
W       -12.545607166900     -153.725856137772       10.050360728316
W        -9.409200601537     -140.377804110681        2.109840145687
W       -12.545600906672     -134.792467784653        3.351720234882
W        -9.409200708181     -136.370973413076        8.900940635285
W       -12.545607160644     -142.236208449262       10.050360728316
W        -9.409200595281     -128.888156422170        2.109840145687
W       -12.545600900416     -123.302820096142        3.351720234882
W        -9.409200701925     -124.881325724565        8.900940635285
W       -12.545607154388     -130.746560760751       10.050360728316
W        -9.409200589025     -117.398508733660        2.109840145687
W       -12.545600894160     -111.813172407632        3.351720234882
W        -9.409200695669     -113.391678036055        8.900940635285
W       -12.545607148131     -119.256913072241       10.050360728316
W        -9.409200582769     -105.908861045150        2.109840145687
W       -12.545600887904     -100.323524719122        3.351720234882
W        -9.409200689412     -101.902030347545        8.900940635285
W       -12.545607141875     -107.767265383731       10.050360728316
W        -9.409200576513      -94.419213356639        2.109840145687
W       -12.545600881648      -88.833877030611        3.351720234882
W        -9.409200676883      -90.412382233917        8.900940635285
W       -12.545607135619      -96.277617695220       10.050360728316
W        -9.409200733349      -82.929565668129        2.109840145687
W       -12.545600875392      -77.344229342101        3.351720234882
W        -9.409200670627      -78.922734545407        8.900940635285
W       -12.545607129363      -84.787970006710       10.050360728316
W        -9.409200727093      -71.439917979619        2.109840145687
W       -12.545600869135      -65.854581653591        3.351720234882
W        -9.409200664371      -67.433086856897        8.900940635285
W       -12.545607123107      -73.298322318199       10.050360728316
W        -9.409200720837      -59.950270291108        2.109840145687
W       -12.545600862879      -54.364933965080        3.351720234882
W        -9.409200658115      -55.943439168386        8.900940635285
W       -12.545607116851      -61.808674629689       10.050360728316
W        -9.409200714581      -48.460622602598        2.109840145687
W       -12.545600856623      -42.875286276570        3.351720234882
W        -9.409200651859      -44.453791479876        8.900940635285
W       -12.545607110594      -50.319026941179       10.050360728316
W        -9.409200708325      -36.970974914088        2.109840145687
W       -12.545600850367      -31.385638588060        3.351720234882
W        -9.409200645603      -32.964143791366        8.900940635285
W       -12.545607104338      -38.829379252668       10.050360728316
W        -9.409200702069      -25.481327225577        2.109840145687
W       -12.545600844111      -19.895990899549        3.351720234882
W        -9.409200639346      -21.474496102855        8.900940635285
W       -12.545607098082      -27.339731564158       10.050360728316
W        -9.409200695812      -13.991679537067        2.109840145687
W       -12.545600837855       -8.406343211039        3.351720234882
W        -9.409200633090       -9.984848414345        8.900940635285
W       -12.545607091826      -15.850083875648       10.050360728316
W        -9.409200689556       -2.502031848556        2.109840145687
W       -12.545600831598        3.083304477471        3.351720234882
W        -9.409200626834        1.504799274165        8.900940635285
W       -12.545607085570       -4.360436187137       10.050360728316
W        -9.409200677027        8.987616265071        2.109840145687
W       -12.545600825342       14.572952165982        3.351720234882
W        -9.409200620578       12.994446962676        8.900940635285
W       -12.545607079314        7.129211501373       10.050360728316
W        -9.409200670771       20.477263953581        2.109840145687
W       -12.545600819086       26.062599854492        3.351720234882
W        -9.409200614322       24.484094651186        8.900940635285
W       -12.545607073057       18.618859189883       10.050360728316
W        -9.409200664515       31.966911642092        2.109840145687
W       -12.545600812830       37.552247543002        3.351720234882
W        -9.409200608066       35.973742339697        8.900940635285
W       -12.545607066801       30.108506878394       10.050360728316
W        -9.409200658259       43.456559330602        2.109840145687
W       -12.545600806574       49.041895231513        3.351720234882
W        -9.409200601809       47.463390028207        8.900940635285
W       -12.545607223638       41.598154566904       10.050360728316
W        -9.409200652003       54.946207019112        2.109840145687
W       -12.545600800318       60.531542920023        3.351720234882
W        -9.409200595553       58.953037716717        8.900940635285
W       -12.545607217382       53.087802255414       10.050360728316
W        -9.409200645746       66.435854707623        2.109840145687
W       -12.545600794061       72.021190608533        3.351720234882
W        -9.409200589297       70.442685405228        8.900940635285
W       -12.545607211125       64.577449943925       10.050360728316
W        -9.409200639490       77.925502396133        2.109840145687
W       -12.545600950898       83.510838297044        3.351720234882
W        -9.409200583041       81.932333093738        8.900940635285
W       -12.545607204869       76.067097632435       10.050360728316
W        -9.409200633234       89.415150084643        2.109840145687
W       -12.545600944642       95.000485985554        3.351720234882
W        -9.409200576785       93.421980782248        8.900940635285
W       -12.545607198613       87.556745320945       10.050360728316
W        -9.409200626978      100.904797773154        2.109840145687
W       -12.545600938386      106.490133674065        3.351720234882
W        -9.409200570529      104.911628470759        8.900940635285
W       -12.545607192357       99.046393009456       10.050360728316
W        -9.409200620722      112.394445461664        2.109840145687
W       -12.545600932130      117.979781362575        3.351720234882
W        -9.409200727365      116.401276159269        8.900940635285
W       -12.545607186101      110.536040697966       10.050360728316
W        -9.409200614466      123.884093150174        2.109840145687
W       -12.545600925873      129.469429051085        3.351720234882
W        -9.409200721109      127.890923847779        8.900940635285
W       -12.545607179845      122.025688386477       10.050360728316
W        -9.409200608209      135.373740838685        2.109840145687
W       -12.545600919617      140.959076739596        3.351720234882
W        -9.409200714853      139.380571536290        8.900940635285
W       -12.545607173588      133.515336074987       10.050360728316
W        -9.409200601953      146.863388527195        2.109840145687
W       -12.545600913361      152.448724428106        3.351720234882
W        -9.409200708597      150.870219224800        8.900940635285
W       -12.545607167332      145.004983763497       10.050360728316
W        -9.409200595697      158.353036215705        2.109840145687
W       -12.545600907105      163.938372116616        3.351720234882
W        -9.409200702341      162.359866913310        8.900940635285
W       -12.545607161076      156.494631452008       10.050360728316
W        -9.409200589441      169.842683904216        2.109840145687
W       -12.545600900849      175.428019805127        3.351720234882
W        -9.409200696084      173.849514601821        8.900940635285
W       -12.545607154820      167.984279140518       10.050360728316
W        -9.409200583185      181.332331592726        2.109840145687
W       -12.545600894593      186.917667493637        3.351720234882
W        -9.409200689828      185.339162290331        8.900940635285
W       -12.545607148564      179.473926829028       10.050360728316
W        -9.409200576929      192.821979281237        2.109840145687
W       -12.545600888336      198.407315182147        3.351720234882
W        -9.409200683572      196.828809978842        8.900940635285
W       -12.545607142308      190.963574517539       10.050360728316
W        -9.409200570672      204.311626969747        2.109840145687
W       -12.545600882080      209.896962870658        3.351720234882
W        -9.409200677316      208.318457667352        8.900940635285
W       -12.545607136051      202.453222206049       10.050360728316
W       -15.682001161509     -209.315690241743        2.109840145687
W       -18.818401309824     -203.730354340832        3.351720234882
W       -15.682001105060     -205.308859544138        8.900940635285
W       -18.818407563795     -211.174095005441       10.050360728316
W       -15.682001155253     -197.826042553232        2.109840145687
W       -18.818401303568     -192.240706652322        3.351720234882
W       -15.682001098803     -193.819211855627        8.900940635285
W       -18.818407551266     -199.684446891813       10.050360728316
W       -15.682001148997     -186.336394864722        2.109840145687
W       -18.818401297312     -180.751058963811        3.351720234882
W       -15.682001092547     -182.329564167117        8.900940635285
W       -18.818407545010     -188.194799203303       10.050360728316
W       -15.682001142741     -174.846747176212        2.109840145687
W       -18.818401291056     -169.261411275301        3.351720234882
W       -15.682001086291     -170.839916478607        8.900940635285
W       -18.818407538754     -176.705151514793       10.050360728316
W       -15.682001136484     -163.357099487701        2.109840145687
W       -18.818401284799     -157.771763586791        3.351720234882
W       -15.682001080035     -159.350268790096        8.900940635285
W       -18.818407532498     -165.215503826282       10.050360728316
W       -15.682001130228     -151.867451799191        2.109840145687
W       -18.818401278543     -146.282115898280        3.351720234882
W       -15.682001073779     -147.860621101586        8.900940635285
W       -18.818407526242     -153.725856137772       10.050360728316
W       -15.682001123972     -140.377804110681        2.109840145687
W       -18.818401266014     -134.792467784653        3.351720234882
W       -15.682001067523     -136.370973413076        8.900940635285
W       -18.818407519985     -142.236208449262       10.050360728316
W       -15.682001117716     -128.888156422170        2.109840145687
W       -18.818401259758     -123.302820096142        3.351720234882
W       -15.682001061266     -124.881325724565        8.900940635285
W       -18.818407513729     -130.746560760751       10.050360728316
W       -15.682001111460     -117.398508733660        2.109840145687
W       -18.818401253502     -111.813172407632        3.351720234882
W       -15.682001055010     -113.391678036055        8.900940635285
W       -18.818407507473     -119.256913072241       10.050360728316
W       -15.682001105204     -105.908861045150        2.109840145687
W       -18.818401247246     -100.323524719122        3.351720234882
W       -15.682001048754     -101.902030347545        8.900940635285
W       -18.818407501217     -107.767265383731       10.050360728316
W       -15.682001098947      -94.419213356639        2.109840145687
W       -18.818401240990      -88.833877030611        3.351720234882
W       -15.682001036225      -90.412382233917        8.900940635285
W       -18.818407494961      -96.277617695220       10.050360728316
W       -15.682001092691      -82.929565668129        2.109840145687
W       -18.818401234733      -77.344229342101        3.351720234882
W       -15.682001029969      -78.922734545407        8.900940635285
W       -18.818407651797      -84.787970006710       10.050360728316
W       -15.682001086435      -71.439917979619        2.109840145687
W       -18.818401228477      -65.854581653591        3.351720234882
W       -15.682001023713      -67.433086856897        8.900940635285
W       -18.818407645541      -73.298322318199       10.050360728316
W       -15.682001080179      -59.950270291108        2.109840145687
W       -18.818401222221      -54.364933965080        3.351720234882
W       -15.682001017457      -55.943439168386        8.900940635285
W       -18.818407639285      -61.808674629689       10.050360728316
W       -15.682001073923      -48.460622602598        2.109840145687
W       -18.818401379058      -42.875286276570        3.351720234882
W       -15.682001011201      -44.453791479876        8.900940635285
W       -18.818407633029      -50.319026941179       10.050360728316
W       -15.682001067667      -36.970974914088        2.109840145687
W       -18.818401372802      -31.385638588060        3.351720234882
W       -15.682001004944      -32.964143791366        8.900940635285
W       -18.818407626773      -38.829379252668       10.050360728316
W       -15.682001061410      -25.481327225577        2.109840145687
W       -18.818401366545      -19.895990899549        3.351720234882
W       -15.682001161781      -21.474496102855        8.900940635285
W       -18.818407620517      -27.339731564158       10.050360728316
W       -15.682001055154      -13.991679537067        2.109840145687
W       -18.818401360289       -8.406343211039        3.351720234882
W       -15.682001155525       -9.984848414345        8.900940635285
W       -18.818407614260      -15.850083875648       10.050360728316
W       -15.682001048898       -2.502031848556        2.109840145687
W       -18.818401354033        3.083304477471        3.351720234882
W       -15.682001149269        1.504799274165        8.900940635285
W       -18.818407608004       -4.360436187137       10.050360728316
W       -15.682001036369        8.987616265071        2.109840145687
W       -18.818401347777       14.572952165982        3.351720234882
W       -15.682001143012       12.994446962676        8.900940635285
W       -18.818407601748        7.129211501373       10.050360728316
W       -15.682001030113       20.477263953581        2.109840145687
W       -18.818401341521       26.062599854492        3.351720234882
W       -15.682001136756       24.484094651186        8.900940635285
W       -18.818407595492       18.618859189883       10.050360728316
W       -15.682001023857       31.966911642092        2.109840145687
W       -18.818401335265       37.552247543002        3.351720234882
W       -15.682001130500       35.973742339697        8.900940635285
W       -18.818407589236       30.108506878394       10.050360728316
W       -15.682001017601       43.456559330602        2.109840145687
W       -18.818401329008       49.041895231513        3.351720234882
W       -15.682001124244       47.463390028207        8.900940635285
W       -18.818407582980       41.598154566904       10.050360728316
W       -15.682001011344       54.946207019112        2.109840145687
W       -18.818401322752       60.531542920023        3.351720234882
W       -15.682001117988       58.953037716717        8.900940635285
W       -18.818407576723       53.087802255414       10.050360728316
W       -15.682001005088       66.435854707623        2.109840145687
W       -18.818401316496       72.021190608533        3.351720234882
W       -15.682001111732       70.442685405228        8.900940635285
W       -18.818407570467       64.577449943925       10.050360728316
W       -15.682001161925       77.925502396133        2.109840145687
W       -18.818401310240       83.510838297044        3.351720234882
W       -15.682001105475       81.932333093738        8.900940635285
W       -18.818407564211       76.067097632435       10.050360728316
W       -15.682001155669       89.415150084643        2.109840145687
W       -18.818401303984       95.000485985554        3.351720234882
W       -15.682001099219       93.421980782248        8.900940635285
W       -18.818407557955       87.556745320945       10.050360728316
W       -15.682001149413      100.904797773154        2.109840145687
W       -18.818401297728      106.490133674065        3.351720234882
W       -15.682001092963      104.911628470759        8.900940635285
W       -18.818407551699       99.046393009456       10.050360728316
W       -15.682001143156      112.394445461664        2.109840145687
W       -18.818401291471      117.979781362575        3.351720234882
W       -15.682001086707      116.401276159269        8.900940635285
W       -18.818407545443      110.536040697966       10.050360728316
W       -15.682001136900      123.884093150174        2.109840145687
W       -18.818401285215      129.469429051085        3.351720234882
W       -15.682001080451      127.890923847779        8.900940635285
W       -18.818407539186      122.025688386477       10.050360728316
W       -15.682001130644      135.373740838685        2.109840145687
W       -18.818401278959      140.959076739596        3.351720234882
W       -15.682001074195      139.380571536290        8.900940635285
W       -18.818407532930      133.515336074987       10.050360728316
W       -15.682001124388      146.863388527195        2.109840145687
W       -18.818401272703      152.448724428106        3.351720234882
W       -15.682001067938      150.870219224800        8.900940635285
W       -18.818407526674      145.004983763497       10.050360728316
W       -15.682001118132      158.353036215705        2.109840145687
W       -18.818401266447      163.938372116616        3.351720234882
W       -15.682001061682      162.359866913310        8.900940635285
W       -18.818407520418      156.494631452008       10.050360728316
W       -15.682001111876      169.842683904216        2.109840145687
W       -18.818401260190      175.428019805127        3.351720234882
W       -15.682001055426      173.849514601821        8.900940635285
W       -18.818407514162      167.984279140518       10.050360728316
W       -15.682001105619      181.332331592726        2.109840145687
W       -18.818401253934      186.917667493637        3.351720234882
W       -15.682001049170      185.339162290331        8.900940635285
W       -18.818407507906      179.473926829028       10.050360728316
W       -15.682001099363      192.821979281237        2.109840145687
W       -18.818401247678      198.407315182147        3.351720234882
W       -15.682001042914      196.828809978842        8.900940635285
W       -18.818407501649      190.963574517539       10.050360728316
W       -15.682001093107      204.311626969747        2.109840145687
W       -18.818401241422      209.896962870658        3.351720234882
W       -15.682001036658      208.318457667352        8.900940635285
W       -18.818407658486      202.453222206049       10.050360728316
W       -21.954801520851     -209.315690241743        2.109840145687
W       -25.091201669166     -203.730354340832        3.351720234882
W       -21.954801464401     -205.308859544138        8.900940635285
W       -25.091208086230     -211.174095005441       10.050360728316
W       -21.954801514595     -197.826042553232        2.109840145687
W       -25.091201662910     -192.240706652322        3.351720234882
W       -21.954801458145     -193.819211855627        8.900940635285
W       -25.091208073701     -199.684446891813       10.050360728316
W       -21.954801508339     -186.336394864722        2.109840145687
W       -25.091201819746     -180.751058963811        3.351720234882
W       -21.954801451889     -182.329564167117        8.900940635285
W       -25.091208067445     -188.194799203303       10.050360728316
W       -21.954801502082     -174.846747176212        2.109840145687
W       -25.091201813490     -169.261411275301        3.351720234882
W       -21.954801445633     -170.839916478607        8.900940635285
W       -25.091208061189     -176.705151514793       10.050360728316
W       -21.954801495826     -163.357099487701        2.109840145687
W       -25.091201807234     -157.771763586791        3.351720234882
W       -21.954801602470     -159.350268790096        8.900940635285
W       -25.091208054932     -165.215503826282       10.050360728316
W       -21.954801489570     -151.867451799191        2.109840145687
W       -25.091201800978     -146.282115898280        3.351720234882
W       -21.954801596213     -147.860621101586        8.900940635285
W       -25.091208048676     -153.725856137772       10.050360728316
W       -21.954801483314     -140.377804110681        2.109840145687
W       -25.091201788449     -134.792467784653        3.351720234882
W       -21.954801589957     -136.370973413076        8.900940635285
W       -25.091208042420     -142.236208449262       10.050360728316
W       -21.954801477058     -128.888156422170        2.109840145687
W       -25.091201782193     -123.302820096142        3.351720234882
W       -21.954801583701     -124.881325724565        8.900940635285
W       -25.091208036164     -130.746560760751       10.050360728316
W       -21.954801470801     -117.398508733660        2.109840145687
W       -25.091201775936     -111.813172407632        3.351720234882
W       -21.954801577445     -113.391678036055        8.900940635285
W       -25.091208029908     -119.256913072241       10.050360728316
W       -21.954801464545     -105.908861045150        2.109840145687
W       -25.091201769680     -100.323524719122        3.351720234882
W       -21.954801571189     -101.902030347545        8.900940635285
W       -25.091208023652     -107.767265383731       10.050360728316
W       -21.954801458289      -94.419213356639        2.109840145687
W       -25.091201763424      -88.833877030611        3.351720234882
W       -21.954801558660      -90.412382233917        8.900940635285
W       -25.091208017395      -96.277617695220       10.050360728316
W       -21.954801452033      -82.929565668129        2.109840145687
W       -25.091201757168      -77.344229342101        3.351720234882
W       -21.954801552404      -78.922734545407        8.900940635285
W       -25.091208011139      -84.787970006710       10.050360728316
W       -21.954801445777      -71.439917979619        2.109840145687
W       -25.091201750912      -65.854581653591        3.351720234882
W       -21.954801546147      -67.433086856897        8.900940635285
W       -25.091208004883      -73.298322318199       10.050360728316
W       -21.954801602613      -59.950270291108        2.109840145687
W       -25.091201744656      -54.364933965080        3.351720234882
W       -21.954801539891      -55.943439168386        8.900940635285
W       -25.091207998627      -61.808674629689       10.050360728316
W       -21.954801596357      -48.460622602598        2.109840145687
W       -25.091201738399      -42.875286276570        3.351720234882
W       -21.954801533635      -44.453791479876        8.900940635285
W       -25.091207992371      -50.319026941179       10.050360728316
W       -21.954801590101      -36.970974914088        2.109840145687
W       -25.091201732143      -31.385638588060        3.351720234882
W       -21.954801527379      -32.964143791366        8.900940635285
W       -25.091207986115      -38.829379252668       10.050360728316
W       -21.954801583845      -25.481327225577        2.109840145687
W       -25.091201725887      -19.895990899549        3.351720234882
W       -21.954801521123      -21.474496102855        8.900940635285
W       -25.091207979858      -27.339731564158       10.050360728316
W       -21.954801577589      -13.991679537067        2.109840145687
W       -25.091201719631       -8.406343211039        3.351720234882
W       -21.954801514867       -9.984848414345        8.900940635285
W       -25.091207973602      -15.850083875648       10.050360728316
W       -21.954801571333       -2.502031848556        2.109840145687
W       -25.091201713375        3.083304477471        3.351720234882
W       -21.954801508610        1.504799274165        8.900940635285
W       -25.091207967346       -4.360436187137       10.050360728316
W       -21.954801558804        8.987616265071        2.109840145687
W       -25.091201707119       14.572952165982        3.351720234882
W       -21.954801502354       12.994446962676        8.900940635285
W       -25.091207961090        7.129211501373       10.050360728316
W       -21.954801552547       20.477263953581        2.109840145687
W       -25.091201700862       26.062599854492        3.351720234882
W       -21.954801496098       24.484094651186        8.900940635285
W       -25.091207954834       18.618859189883       10.050360728316
W       -21.954801546291       31.966911642092        2.109840145687
W       -25.091201694606       37.552247543002        3.351720234882
W       -21.954801489842       35.973742339697        8.900940635285
W       -25.091207948578       30.108506878394       10.050360728316
W       -21.954801540035       43.456559330602        2.109840145687
W       -25.091201688350       49.041895231513        3.351720234882
W       -21.954801483586       47.463390028207        8.900940635285
W       -25.091207942321       41.598154566904       10.050360728316
W       -21.954801533779       54.946207019112        2.109840145687
W       -25.091201682094       60.531542920023        3.351720234882
W       -21.954801477330       58.953037716717        8.900940635285
W       -25.091207936065       53.087802255414       10.050360728316
W       -21.954801527523       66.435854707623        2.109840145687
W       -25.091201675838       72.021190608533        3.351720234882
W       -21.954801471073       70.442685405228        8.900940635285
W       -25.091208092902       64.577449943925       10.050360728316
W       -21.954801521267       77.925502396133        2.109840145687
W       -25.091201669582       83.510838297044        3.351720234882
W       -21.954801464817       81.932333093738        8.900940635285
W       -25.091208086646       76.067097632435       10.050360728316
W       -21.954801515010       89.415150084643        2.109840145687
W       -25.091201663325       95.000485985554        3.351720234882
W       -21.954801458561       93.421980782248        8.900940635285
W       -25.091208080390       87.556745320945       10.050360728316
W       -21.954801508754      100.904797773154        2.109840145687
W       -25.091201820162      106.490133674065        3.351720234882
W       -21.954801452305      104.911628470759        8.900940635285
W       -25.091208074133       99.046393009456       10.050360728316
W       -21.954801502498      112.394445461664        2.109840145687
W       -25.091201813906      117.979781362575        3.351720234882
W       -21.954801446049      116.401276159269        8.900940635285
W       -25.091208067877      110.536040697966       10.050360728316
W       -21.954801496242      123.884093150174        2.109840145687
W       -25.091201807650      129.469429051085        3.351720234882
W       -21.954801602885      127.890923847779        8.900940635285
W       -25.091208061621      122.025688386477       10.050360728316
W       -21.954801489986      135.373740838685        2.109840145687
W       -25.091201801394      140.959076739596        3.351720234882
W       -21.954801596629      139.380571536290        8.900940635285
W       -25.091208055365      133.515336074987       10.050360728316
W       -21.954801483730      146.863388527195        2.109840145687
W       -25.091201795137      152.448724428106        3.351720234882
W       -21.954801590373      150.870219224800        8.900940635285
W       -25.091208049109      145.004983763497       10.050360728316
W       -21.954801477473      158.353036215705        2.109840145687
W       -25.091201788881      163.938372116616        3.351720234882
W       -21.954801584117      162.359866913310        8.900940635285
W       -25.091208042853      156.494631452008       10.050360728316
W       -21.954801471217      169.842683904216        2.109840145687
W       -25.091201782625      175.428019805127        3.351720234882
W       -21.954801577861      173.849514601821        8.900940635285
W       -25.091208036596      167.984279140518       10.050360728316
W       -21.954801464961      181.332331592726        2.109840145687
W       -25.091201776369      186.917667493637        3.351720234882
W       -21.954801571605      185.339162290331        8.900940635285
W       -25.091208030340      179.473926829028       10.050360728316
W       -21.954801458705      192.821979281237        2.109840145687
W       -25.091201770113      198.407315182147        3.351720234882
W       -21.954801565348      196.828809978842        8.900940635285
W       -25.091208024084      190.963574517539       10.050360728316
W       -21.954801452449      204.311626969747        2.109840145687
W       -25.091201763857      209.896962870658        3.351720234882
W       -21.954801559092      208.318457667352        8.900940635285
W       -25.091208017828      202.453222206049       10.050360728316
W       -28.227601880193     -209.315690241743        2.109840145687
W       -31.364002191600     -203.730354340832        3.351720234882
W       -28.227601986836     -205.308859544138        8.900940635285
W       -31.364008445572     -211.174095005441       10.050360728316
W       -28.227602037029     -197.826042553232        2.109840145687
W       -31.364002185344     -192.240706652322        3.351720234882
W       -28.227601980580     -193.819211855627        8.900940635285
W       -31.364008433043     -199.684446891813       10.050360728316
W       -28.227602030773     -186.336394864722        2.109840145687
W       -31.364002179088     -180.751058963811        3.351720234882
W       -28.227601974324     -182.329564167117        8.900940635285
W       -31.364008426787     -188.194799203303       10.050360728316
W       -28.227602024517     -174.846747176212        2.109840145687
W       -31.364002172832     -169.261411275301        3.351720234882
W       -28.227601968068     -170.839916478607        8.900940635285
W       -31.364008420530     -176.705151514793       10.050360728316
W       -28.227602018261     -163.357099487701        2.109840145687
W       -31.364002166576     -157.771763586791        3.351720234882
W       -28.227601961811     -159.350268790096        8.900940635285
W       -31.364008414274     -165.215503826282       10.050360728316
W       -28.227602012005     -151.867451799191        2.109840145687
W       -31.364002160320     -146.282115898280        3.351720234882
W       -28.227601955555     -147.860621101586        8.900940635285
W       -31.364008408018     -153.725856137772       10.050360728316
W       -28.227602005748     -140.377804110681        2.109840145687
W       -31.364002147791     -134.792467784653        3.351720234882
W       -28.227601949299     -136.370973413076        8.900940635285
W       -31.364008401762     -142.236208449262       10.050360728316
W       -28.227601999492     -128.888156422170        2.109840145687
W       -31.364002141534     -123.302820096142        3.351720234882
W       -28.227601943043     -124.881325724565        8.900940635285
W       -31.364008395506     -130.746560760751       10.050360728316
W       -28.227601993236     -117.398508733660        2.109840145687
W       -31.364002135278     -111.813172407632        3.351720234882
W       -28.227601936787     -113.391678036055        8.900940635285
W       -31.364008389250     -119.256913072241       10.050360728316
W       -28.227601986980     -105.908861045150        2.109840145687
W       -31.364002129022     -100.323524719122        3.351720234882
W       -28.227601930531     -101.902030347545        8.900940635285
W       -31.364008382993     -107.767265383731       10.050360728316
W       -28.227601980724      -94.419213356639        2.109840145687
W       -31.364002122766      -88.833877030611        3.351720234882
W       -28.227601918002      -90.412382233917        8.900940635285
W       -31.364008376737      -96.277617695220       10.050360728316
W       -28.227601974468      -82.929565668129        2.109840145687
W       -31.364002116510      -77.344229342101        3.351720234882
W       -28.227601911745      -78.922734545407        8.900940635285
W       -31.364008370481      -84.787970006710       10.050360728316
W       -28.227601968211      -71.439917979619        2.109840145687
W       -31.364002110254      -65.854581653591        3.351720234882
W       -28.227601905489      -67.433086856897        8.900940635285
W       -31.364008364225      -73.298322318199       10.050360728316
W       -28.227601961955      -59.950270291108        2.109840145687
W       -31.364002103997      -54.364933965080        3.351720234882
W       -28.227601899233      -55.943439168386        8.900940635285
W       -31.364008521061      -61.808674629689       10.050360728316
W       -28.227601955699      -48.460622602598        2.109840145687
W       -31.364002097741      -42.875286276570        3.351720234882
W       -28.227601892977      -44.453791479876        8.900940635285
W       -31.364008514805      -50.319026941179       10.050360728316
W       -28.227601949443      -36.970974914088        2.109840145687
W       -31.364002091485      -31.385638588060        3.351720234882
W       -28.227601886721      -32.964143791366        8.900940635285
W       -31.364008508549      -38.829379252668       10.050360728316
W       -28.227601943187      -25.481327225577        2.109840145687
W       -31.364002248322      -19.895990899549        3.351720234882
W       -28.227601880465      -21.474496102855        8.900940635285
W       -31.364008502293      -27.339731564158       10.050360728316
W       -28.227601936931      -13.991679537067        2.109840145687
W       -31.364002242066       -8.406343211039        3.351720234882
W       -28.227601874208       -9.984848414345        8.900940635285
W       -31.364008496037      -15.850083875648       10.050360728316
W       -28.227601930674       -2.502031848556        2.109840145687
W       -31.364002235809        3.083304477471        3.351720234882
W       -28.227602031045        1.504799274165        8.900940635285
W       -31.364008489781       -4.360436187137       10.050360728316
W       -28.227601918145        8.987616265071        2.109840145687
W       -31.364002229553       14.572952165982        3.351720234882
W       -28.227602024789       12.994446962676        8.900940635285
W       -31.364008483524        7.129211501373       10.050360728316
W       -28.227601911889       20.477263953581        2.109840145687
W       -31.364002223297       26.062599854492        3.351720234882
W       -28.227602018533       24.484094651186        8.900940635285
W       -31.364008477268       18.618859189883       10.050360728316
W       -28.227601905633       31.966911642092        2.109840145687
W       -31.364002217041       37.552247543002        3.351720234882
W       -28.227602012277       35.973742339697        8.900940635285
W       -31.364008471012       30.108506878394       10.050360728316
W       -28.227601899377       43.456559330602        2.109840145687
W       -31.364002210785       49.041895231513        3.351720234882
W       -28.227602006020       47.463390028207        8.900940635285
W       -31.364008464756       41.598154566904       10.050360728316
W       -28.227601893121       54.946207019112        2.109840145687
W       -31.364002204529       60.531542920023        3.351720234882
W       -28.227601999764       58.953037716717        8.900940635285
W       -31.364008458500       53.087802255414       10.050360728316
W       -28.227601886865       66.435854707623        2.109840145687
W       -31.364002198272       72.021190608533        3.351720234882
W       -28.227601993508       70.442685405228        8.900940635285
W       -31.364008452244       64.577449943925       10.050360728316
W       -28.227601880608       77.925502396133        2.109840145687
W       -31.364002192016       83.510838297044        3.351720234882
W       -28.227601987252       81.932333093738        8.900940635285
W       -31.364008445987       76.067097632435       10.050360728316
W       -28.227601874352       89.415150084643        2.109840145687
W       -31.364002185760       95.000485985554        3.351720234882
W       -28.227601980996       93.421980782248        8.900940635285
W       -31.364008439731       87.556745320945       10.050360728316
W       -28.227602031189      100.904797773154        2.109840145687
W       -31.364002179504      106.490133674065        3.351720234882
W       -28.227601974739      104.911628470759        8.900940635285
W       -31.364008433475       99.046393009456       10.050360728316
W       -28.227602024933      112.394445461664        2.109840145687
W       -31.364002173248      117.979781362575        3.351720234882
W       -28.227601968483      116.401276159269        8.900940635285
W       -31.364008427219      110.536040697966       10.050360728316
W       -28.227602018677      123.884093150174        2.109840145687
W       -31.364002166992      129.469429051085        3.351720234882
W       -28.227601962227      127.890923847779        8.900940635285
W       -31.364008420963      122.025688386477       10.050360728316
W       -28.227602012420      135.373740838685        2.109840145687
W       -31.364002160735      140.959076739596        3.351720234882
W       -28.227601955971      139.380571536290        8.900940635285
W       -31.364008414707      133.515336074987       10.050360728316
W       -28.227602006164      146.863388527195        2.109840145687
W       -31.364002154479      152.448724428106        3.351720234882
W       -28.227601949715      150.870219224800        8.900940635285
W       -31.364008408450      145.004983763497       10.050360728316
W       -28.227601999908      158.353036215705        2.109840145687
W       -31.364002148223      163.938372116616        3.351720234882
W       -28.227601943459      162.359866913310        8.900940635285
W       -31.364008402194      156.494631452008       10.050360728316
W       -28.227601993652      169.842683904216        2.109840145687
W       -31.364002141967      175.428019805127        3.351720234882
W       -28.227601937202      173.849514601821        8.900940635285
W       -31.364008395938      167.984279140518       10.050360728316
W       -28.227601987396      181.332331592726        2.109840145687
W       -31.364002135711      186.917667493637        3.351720234882
W       -28.227601930946      185.339162290331        8.900940635285
W       -31.364008389682      179.473926829028       10.050360728316
W       -28.227601981140      192.821979281237        2.109840145687
W       -31.364002129455      198.407315182147        3.351720234882
W       -28.227601924690      196.828809978842        8.900940635285
W       -31.364008383426      190.963574517539       10.050360728316
W       -28.227601974883      204.311626969747        2.109840145687
W       -31.364002123198      209.896962870658        3.351720234882
W       -28.227601918434      208.318457667352        8.900940635285
W       -31.364008377170      202.453222206049       10.050360728316
W       -34.500402402627     -209.315690241743        2.109840145687
W       -37.636802550942     -203.730354340832        3.351720234882
W       -34.500402346178     -205.308859544138        8.900940635285
W       -37.636808804913     -211.174095005441       10.050360728316
W       -34.500402396371     -197.826042553232        2.109840145687
W       -37.636802544686     -192.240706652322        3.351720234882
W       -34.500402339922     -193.819211855627        8.900940635285
W       -37.636808955477     -199.684446891813       10.050360728316
W       -34.500402390115     -186.336394864722        2.109840145687
W       -37.636802538430     -180.751058963811        3.351720234882
W       -34.500402333665     -182.329564167117        8.900940635285
W       -37.636808949221     -188.194799203303       10.050360728316
W       -34.500402383859     -174.846747176212        2.109840145687
W       -37.636802532174     -169.261411275301        3.351720234882
W       -34.500402327409     -170.839916478607        8.900940635285
W       -37.636808942965     -176.705151514793       10.050360728316
W       -34.500402377603     -163.357099487701        2.109840145687
W       -37.636802689010     -157.771763586791        3.351720234882
W       -34.500402321153     -159.350268790096        8.900940635285
W       -37.636808936709     -165.215503826282       10.050360728316
W       -34.500402371346     -151.867451799191        2.109840145687
W       -37.636802682754     -146.282115898280        3.351720234882
W       -34.500402314897     -147.860621101586        8.900940635285
W       -37.636808930453     -153.725856137772       10.050360728316
W       -34.500402365090     -140.377804110681        2.109840145687
W       -37.636802670225     -134.792467784653        3.351720234882
W       -34.500402471734     -136.370973413076        8.900940635285
W       -37.636808924196     -142.236208449262       10.050360728316
W       -34.500402358834     -128.888156422170        2.109840145687
W       -37.636802663969     -123.302820096142        3.351720234882
W       -34.500402465477     -124.881325724565        8.900940635285
W       -37.636808917940     -130.746560760751       10.050360728316
W       -34.500402352578     -117.398508733660        2.109840145687
W       -37.636802657713     -111.813172407632        3.351720234882
W       -34.500402459221     -113.391678036055        8.900940635285
W       -37.636808911684     -119.256913072241       10.050360728316
W       -34.500402346322     -105.908861045150        2.109840145687
W       -37.636802651457     -100.323524719122        3.351720234882
W       -34.500402452965     -101.902030347545        8.900940635285
W       -37.636808905428     -107.767265383731       10.050360728316
W       -34.500402340066      -94.419213356639        2.109840145687
W       -37.636802645201      -88.833877030611        3.351720234882
W       -34.500402440436      -90.412382233917        8.900940635285
W       -37.636808899172      -96.277617695220       10.050360728316
W       -34.500402333809      -82.929565668129        2.109840145687
W       -37.636802638944      -77.344229342101        3.351720234882
W       -34.500402434180      -78.922734545407        8.900940635285
W       -37.636808892916      -84.787970006710       10.050360728316
W       -34.500402327553      -71.439917979619        2.109840145687
W       -37.636802632688      -65.854581653591        3.351720234882
W       -34.500402427924      -67.433086856897        8.900940635285
W       -37.636808886659      -73.298322318199       10.050360728316
W       -34.500402321297      -59.950270291108        2.109840145687
W       -37.636802626432      -54.364933965080        3.351720234882
W       -34.500402421668      -55.943439168386        8.900940635285
W       -37.636808880403      -61.808674629689       10.050360728316
W       -34.500402315041      -48.460622602598        2.109840145687
W       -37.636802620176      -42.875286276570        3.351720234882
W       -34.500402415411      -44.453791479876        8.900940635285
W       -37.636808874147      -50.319026941179       10.050360728316
W       -34.500402471877      -36.970974914088        2.109840145687
W       -37.636802613920      -31.385638588060        3.351720234882
W       -34.500402409155      -32.964143791366        8.900940635285
W       -37.636808867891      -38.829379252668       10.050360728316
W       -34.500402465621      -25.481327225577        2.109840145687
W       -37.636802607664      -19.895990899549        3.351720234882
W       -34.500402402899      -21.474496102855        8.900940635285
W       -37.636808861635      -27.339731564158       10.050360728316
W       -34.500402459365      -13.991679537067        2.109840145687
W       -37.636802601407       -8.406343211039        3.351720234882
W       -34.500402396643       -9.984848414345        8.900940635285
W       -37.636808855379      -15.850083875648       10.050360728316
W       -34.500402453109       -2.502031848556        2.109840145687
W       -37.636802595151        3.083304477471        3.351720234882
W       -34.500402390387        1.504799274165        8.900940635285
W       -37.636808849122       -4.360436187137       10.050360728316
W       -34.500402440580        8.987616265071        2.109840145687
W       -37.636802588895       14.572952165982        3.351720234882
W       -34.500402384131       12.994446962676        8.900940635285
W       -37.636808842866        7.129211501373       10.050360728316
W       -34.500402434324       20.477263953581        2.109840145687
W       -37.636802582639       26.062599854492        3.351720234882
W       -34.500402377874       24.484094651186        8.900940635285
W       -37.636808836610       18.618859189883       10.050360728316
W       -34.500402428068       31.966911642092        2.109840145687
W       -37.636802576383       37.552247543002        3.351720234882
W       -34.500402371618       35.973742339697        8.900940635285
W       -37.636808830354       30.108506878394       10.050360728316
W       -34.500402421812       43.456559330602        2.109840145687
W       -37.636802570126       49.041895231513        3.351720234882
W       -34.500402365362       47.463390028207        8.900940635285
W       -37.636808824098       41.598154566904       10.050360728316
W       -34.500402415555       54.946207019112        2.109840145687
W       -37.636802563870       60.531542920023        3.351720234882
W       -34.500402359106       58.953037716717        8.900940635285
W       -37.636808817842       53.087802255414       10.050360728316
W       -34.500402409299       66.435854707623        2.109840145687
W       -37.636802557614       72.021190608533        3.351720234882
W       -34.500402352850       70.442685405228        8.900940635285
W       -37.636808811585       64.577449943925       10.050360728316
W       -34.500402403043       77.925502396133        2.109840145687
W       -37.636802551358       83.510838297044        3.351720234882
W       -34.500402346594       81.932333093738        8.900940635285
W       -37.636808805329       76.067097632435       10.050360728316
W       -34.500402396787       89.415150084643        2.109840145687
W       -37.636802545102       95.000485985554        3.351720234882
W       -34.500402340337       93.421980782248        8.900940635285
W       -37.636808962166       87.556745320945       10.050360728316
W       -34.500402390531      100.904797773154        2.109840145687
W       -37.636802538846      106.490133674065        3.351720234882
W       -34.500402334081      104.911628470759        8.900940635285
W       -37.636808955910       99.046393009456       10.050360728316
W       -34.500402384275      112.394445461664        2.109840145687
W       -37.636802532589      117.979781362575        3.351720234882
W       -34.500402327825      116.401276159269        8.900940635285
W       -37.636808949654      110.536040697966       10.050360728316
W       -34.500402378018      123.884093150174        2.109840145687
W       -37.636802689426      129.469429051085        3.351720234882
W       -34.500402321569      127.890923847779        8.900940635285
W       -37.636808943397      122.025688386477       10.050360728316
W       -34.500402371762      135.373740838685        2.109840145687
W       -37.636802683170      140.959076739596        3.351720234882
W       -34.500402315313      139.380571536290        8.900940635285
W       -37.636808937141      133.515336074987       10.050360728316
W       -34.500402365506      146.863388527195        2.109840145687
W       -37.636802676914      152.448724428106        3.351720234882
W       -34.500402472149      150.870219224800        8.900940635285
W       -37.636808930885      145.004983763497       10.050360728316
W       -34.500402359250      158.353036215705        2.109840145687
W       -37.636802670658      163.938372116616        3.351720234882
W       -34.500402465893      162.359866913310        8.900940635285
W       -37.636808924629      156.494631452008       10.050360728316
W       -34.500402352994      169.842683904216        2.109840145687
W       -37.636802664401      175.428019805127        3.351720234882
W       -34.500402459637      173.849514601821        8.900940635285
W       -37.636808918373      167.984279140518       10.050360728316
W       -34.500402346738      181.332331592726        2.109840145687
W       -37.636802658145      186.917667493637        3.351720234882
W       -34.500402453381      185.339162290331        8.900940635285
W       -37.636808912117      179.473926829028       10.050360728316
W       -34.500402340481      192.821979281237        2.109840145687
W       -37.636802651889      198.407315182147        3.351720234882
W       -34.500402447125      196.828809978842        8.900940635285
W       -37.636808905860      190.963574517539       10.050360728316
W       -34.500402334225      204.311626969747        2.109840145687
W       -37.636802645633      209.896962870658        3.351720234882
W       -34.500402440869      208.318457667352        8.900940635285
W       -37.636808899604      202.453222206049       10.050360728316
W       -40.773202761969     -209.315690241743        2.109840145687
W       -43.909603073377     -203.730354340832        3.351720234882
W       -40.773202868612     -205.308859544138        8.900940635285
W       -43.909609327348     -211.174095005441       10.050360728316
W       -40.773202755713     -197.826042553232        2.109840145687
W       -43.909603067121     -192.240706652322        3.351720234882
W       -40.773202862356     -193.819211855627        8.900940635285
W       -43.909609314819     -199.684446891813       10.050360728316
W       -40.773202749457     -186.336394864722        2.109840145687
W       -43.909603060864     -180.751058963811        3.351720234882
W       -40.773202856100     -182.329564167117        8.900940635285
W       -43.909609308563     -188.194799203303       10.050360728316
W       -40.773202906293     -174.846747176212        2.109840145687
W       -43.909603054608     -169.261411275301        3.351720234882
W       -40.773202849844     -170.839916478607        8.900940635285
W       -43.909609302307     -176.705151514793       10.050360728316
W       -40.773202900037     -163.357099487701        2.109840145687
W       -43.909603048352     -157.771763586791        3.351720234882
W       -40.773202843588     -159.350268790096        8.900940635285
W       -43.909609296051     -165.215503826282       10.050360728316
W       -40.773202893781     -151.867451799191        2.109840145687
W       -43.909603042096     -146.282115898280        3.351720234882
W       -40.773202837332     -147.860621101586        8.900940635285
W       -43.909609289794     -153.725856137772       10.050360728316
W       -40.773202887525     -140.377804110681        2.109840145687
W       -43.909603029567     -134.792467784653        3.351720234882
W       -40.773202831075     -136.370973413076        8.900940635285
W       -43.909609283538     -142.236208449262       10.050360728316
W       -40.773202881269     -128.888156422170        2.109840145687
W       -43.909603023311     -123.302820096142        3.351720234882
W       -40.773202824819     -124.881325724565        8.900940635285
W       -43.909609277282     -130.746560760751       10.050360728316
W       -40.773202875012     -117.398508733660        2.109840145687
W       -43.909603017055     -111.813172407632        3.351720234882
W       -40.773202818563     -113.391678036055        8.900940635285
W       -43.909609271026     -119.256913072241       10.050360728316
W       -40.773202868756     -105.908861045150        2.109840145687
W       -43.909603010798     -100.323524719122        3.351720234882
W       -40.773202812307     -101.902030347545        8.900940635285
W       -43.909609264770     -107.767265383731       10.050360728316
W       -40.773202862500      -94.419213356639        2.109840145687
W       -43.909603004542      -88.833877030611        3.351720234882
W       -40.773202799778      -90.412382233917        8.900940635285
W       -43.909609258514      -96.277617695220       10.050360728316
W       -40.773202856244      -82.929565668129        2.109840145687
W       -43.909602998286      -77.344229342101        3.351720234882
W       -40.773202793522      -78.922734545407        8.900940635285
W       -43.909609252257      -84.787970006710       10.050360728316
W       -40.773202849988      -71.439917979619        2.109840145687
W       -43.909602992030      -65.854581653591        3.351720234882
W       -40.773202787266      -67.433086856897        8.900940635285
W       -43.909609246001      -73.298322318199       10.050360728316
W       -40.773202843732      -59.950270291108        2.109840145687
W       -43.909602985774      -54.364933965080        3.351720234882
W       -40.773202781009      -55.943439168386        8.900940635285
W       -43.909609239745      -61.808674629689       10.050360728316
W       -40.773202837475      -48.460622602598        2.109840145687
W       -43.909602979518      -42.875286276570        3.351720234882
W       -40.773202774753      -44.453791479876        8.900940635285
W       -43.909609233489      -50.319026941179       10.050360728316
W       -40.773202831219      -36.970974914088        2.109840145687
W       -43.909602973261      -31.385638588060        3.351720234882
W       -40.773202768497      -32.964143791366        8.900940635285
W       -43.909609390326      -38.829379252668       10.050360728316
W       -40.773202824963      -25.481327225577        2.109840145687
W       -43.909602967005      -19.895990899549        3.351720234882
W       -40.773202762241      -21.474496102855        8.900940635285
W       -43.909609384069      -27.339731564158       10.050360728316
W       -40.773202818707      -13.991679537067        2.109840145687
W       -43.909602960749       -8.406343211039        3.351720234882
W       -40.773202755985       -9.984848414345        8.900940635285
W       -43.909609377813      -15.850083875648       10.050360728316
W       -40.773202812451       -2.502031848556        2.109840145687
W       -43.909603117586        3.083304477471        3.351720234882
W       -40.773202749729        1.504799274165        8.900940635285
W       -43.909609371557       -4.360436187137       10.050360728316
W       -40.773202799922        8.987616265071        2.109840145687
W       -43.909603111330       14.572952165982        3.351720234882
W       -40.773202743472       12.994446962676        8.900940635285
W       -43.909609365301        7.129211501373       10.050360728316
W       -40.773202793666       20.477263953581        2.109840145687
W       -43.909603105073       26.062599854492        3.351720234882
W       -40.773202900309       24.484094651186        8.900940635285
W       -43.909609359045       18.618859189883       10.050360728316
W       -40.773202787409       31.966911642092        2.109840145687
W       -43.909603098817       37.552247543002        3.351720234882
W       -40.773202894053       35.973742339697        8.900940635285
W       -43.909609352789       30.108506878394       10.050360728316
W       -40.773202781153       43.456559330602        2.109840145687
W       -43.909603092561       49.041895231513        3.351720234882
W       -40.773202887797       47.463390028207        8.900940635285
W       -43.909609346532       41.598154566904       10.050360728316
W       -40.773202774897       54.946207019112        2.109840145687
W       -43.909603086305       60.531542920023        3.351720234882
W       -40.773202881541       58.953037716717        8.900940635285
W       -43.909609340276       53.087802255414       10.050360728316
W       -40.773202768641       66.435854707623        2.109840145687
W       -43.909603080049       72.021190608533        3.351720234882
W       -40.773202875284       70.442685405228        8.900940635285
W       -43.909609334020       64.577449943925       10.050360728316
W       -40.773202762385       77.925502396133        2.109840145687
W       -43.909603073793       83.510838297044        3.351720234882
W       -40.773202869028       81.932333093738        8.900940635285
W       -43.909609327764       76.067097632435       10.050360728316
W       -40.773202756129       89.415150084643        2.109840145687
W       -43.909603067536       95.000485985554        3.351720234882
W       -40.773202862772       93.421980782248        8.900940635285
W       -43.909609321508       87.556745320945       10.050360728316
W       -40.773202749872      100.904797773154        2.109840145687
W       -43.909603061280      106.490133674065        3.351720234882
W       -40.773202856516      104.911628470759        8.900940635285
W       -43.909609315252       99.046393009456       10.050360728316
W       -40.773202743616      112.394445461664        2.109840145687
W       -43.909603055024      117.979781362575        3.351720234882
W       -40.773202850260      116.401276159269        8.900940635285
W       -43.909609308995      110.536040697966       10.050360728316
W       -40.773202900453      123.884093150174        2.109840145687
W       -43.909603048768      129.469429051085        3.351720234882
W       -40.773202844004      127.890923847779        8.900940635285
W       -43.909609302739      122.025688386477       10.050360728316
W       -40.773202894197      135.373740838685        2.109840145687
W       -43.909603042512      140.959076739596        3.351720234882
W       -40.773202837747      139.380571536290        8.900940635285
W       -43.909609296483      133.515336074987       10.050360728316
W       -40.773202887941      146.863388527195        2.109840145687
W       -43.909603036256      152.448724428106        3.351720234882
W       -40.773202831491      150.870219224800        8.900940635285
W       -43.909609290227      145.004983763497       10.050360728316
W       -40.773202881684      158.353036215705        2.109840145687
W       -43.909603029999      163.938372116616        3.351720234882
W       -40.773202825235      162.359866913310        8.900940635285
W       -43.909609283971      156.494631452008       10.050360728316
W       -40.773202875428      169.842683904216        2.109840145687
W       -43.909603023743      175.428019805127        3.351720234882
W       -40.773202818979      173.849514601821        8.900940635285
W       -43.909609277714      167.984279140518       10.050360728316
W       -40.773202869172      181.332331592726        2.109840145687
W       -43.909603017487      186.917667493637        3.351720234882
W       -40.773202812723      185.339162290331        8.900940635285
W       -43.909609271458      179.473926829028       10.050360728316
W       -40.773202862916      192.821979281237        2.109840145687
W       -43.909603011231      198.407315182147        3.351720234882
W       -40.773202806467      196.828809978842        8.900940635285
W       -43.909609265202      190.963574517539       10.050360728316
W       -40.773202856660      204.311626969747        2.109840145687
W       -43.909603004975      209.896962870658        3.351720234882
W       -40.773202800210      208.318457667352        8.900940635285
W       -43.909609258946      202.453222206049       10.050360728316
W       -47.046003284404     -209.315690241743        2.109840145687
W       -50.182403432719     -203.730354340832        3.351720234882
W       -47.046003227954     -205.308859544138        8.900940635285
W       -50.182409686690     -211.174095005441       10.050360728316
W       -47.046003278147     -197.826042553232        2.109840145687
W       -50.182403426462     -192.240706652322        3.351720234882
W       -47.046003221698     -193.819211855627        8.900940635285
W       -50.182409674161     -199.684446891813       10.050360728316
W       -47.046003271891     -186.336394864722        2.109840145687
W       -50.182403420206     -180.751058963811        3.351720234882
W       -47.046003215442     -182.329564167117        8.900940635285
W       -50.182409667905     -188.194799203303       10.050360728316
W       -47.046003265635     -174.846747176212        2.109840145687
W       -50.182403413950     -169.261411275301        3.351720234882
W       -47.046003209186     -170.839916478607        8.900940635285
W       -50.182409824741     -176.705151514793       10.050360728316
W       -47.046003259379     -163.357099487701        2.109840145687
W       -50.182403407694     -157.771763586791        3.351720234882
W       -47.046003202930     -159.350268790096        8.900940635285
W       -50.182409818485     -165.215503826282       10.050360728316
W       -47.046003253123     -151.867451799191        2.109840145687
W       -50.182403401438     -146.282115898280        3.351720234882
W       -47.046003196673     -147.860621101586        8.900940635285
W       -50.182409812229     -153.725856137772       10.050360728316
W       -47.046003246867     -140.377804110681        2.109840145687
W       -50.182403552002     -134.792467784653        3.351720234882
W       -47.046003190417     -136.370973413076        8.900940635285
W       -50.182409805973     -142.236208449262       10.050360728316
W       -47.046003240610     -128.888156422170        2.109840145687
W       -50.182403545745     -123.302820096142        3.351720234882
W       -47.046003184161     -124.881325724565        8.900940635285
W       -50.182409799717     -130.746560760751       10.050360728316
W       -47.046003234354     -117.398508733660        2.109840145687
W       -50.182403539489     -111.813172407632        3.351720234882
W       -47.046003340998     -113.391678036055        8.900940635285
W       -50.182409793460     -119.256913072241       10.050360728316
W       -47.046003228098     -105.908861045150        2.109840145687
W       -50.182403533233     -100.323524719122        3.351720234882
W       -47.046003334741     -101.902030347545        8.900940635285
W       -50.182409787204     -107.767265383731       10.050360728316
W       -47.046003221842      -94.419213356639        2.109840145687
W       -50.182403526977      -88.833877030611        3.351720234882
W       -47.046003322213      -90.412382233917        8.900940635285
W       -50.182409780948      -96.277617695220       10.050360728316
W       -47.046003215586      -82.929565668129        2.109840145687
W       -50.182403520721      -77.344229342101        3.351720234882
W       -47.046003315956      -78.922734545407        8.900940635285
W       -50.182409774692      -84.787970006710       10.050360728316
W       -47.046003209330      -71.439917979619        2.109840145687
W       -50.182403514465      -65.854581653591        3.351720234882
W       -47.046003309700      -67.433086856897        8.900940635285
W       -50.182409768436      -73.298322318199       10.050360728316
W       -47.046003203073      -59.950270291108        2.109840145687
W       -50.182403508208      -54.364933965080        3.351720234882
W       -47.046003303444      -55.943439168386        8.900940635285
W       -50.182409762180      -61.808674629689       10.050360728316
W       -47.046003196817      -48.460622602598        2.109840145687
W       -50.182403501952      -42.875286276570        3.351720234882
W       -47.046003297188      -44.453791479876        8.900940635285
W       -50.182409755923      -50.319026941179       10.050360728316
W       -47.046003190561      -36.970974914088        2.109840145687
W       -50.182403495696      -31.385638588060        3.351720234882
W       -47.046003290932      -32.964143791366        8.900940635285
W       -50.182409749667      -38.829379252668       10.050360728316
W       -47.046003184305      -25.481327225577        2.109840145687
W       -50.182403489440      -19.895990899549        3.351720234882
W       -47.046003284675      -21.474496102855        8.900940635285
W       -50.182409743411      -27.339731564158       10.050360728316
W       -47.046003341142      -13.991679537067        2.109840145687
W       -50.182403483184       -8.406343211039        3.351720234882
W       -47.046003278419       -9.984848414345        8.900940635285
W       -50.182409737155      -15.850083875648       10.050360728316
W       -47.046003334885       -2.502031848556        2.109840145687
W       -50.182403476928        3.083304477471        3.351720234882
W       -47.046003272163        1.504799274165        8.900940635285
W       -50.182409730899       -4.360436187137       10.050360728316
W       -47.046003322356        8.987616265071        2.109840145687
W       -50.182403470671       14.572952165982        3.351720234882
W       -47.046003265907       12.994446962676        8.900940635285
W       -50.182409724643        7.129211501373       10.050360728316
W       -47.046003316100       20.477263953581        2.109840145687
W       -50.182403464415       26.062599854492        3.351720234882
W       -47.046003259651       24.484094651186        8.900940635285
W       -50.182409718386       18.618859189883       10.050360728316
W       -47.046003309844       31.966911642092        2.109840145687
W       -50.182403458159       37.552247543002        3.351720234882
W       -47.046003253395       35.973742339697        8.900940635285
W       -50.182409712130       30.108506878394       10.050360728316
W       -47.046003303588       43.456559330602        2.109840145687
W       -50.182403451903       49.041895231513        3.351720234882
W       -47.046003247138       47.463390028207        8.900940635285
W       -50.182409705874       41.598154566904       10.050360728316
W       -47.046003297332       54.946207019112        2.109840145687
W       -50.182403445647       60.531542920023        3.351720234882
W       -47.046003240882       58.953037716717        8.900940635285
W       -50.182409699618       53.087802255414       10.050360728316
W       -47.046003291076       66.435854707623        2.109840145687
W       -50.182403439391       72.021190608533        3.351720234882
W       -47.046003234626       70.442685405228        8.900940635285
W       -50.182409693362       64.577449943925       10.050360728316
W       -47.046003284819       77.925502396133        2.109840145687
W       -50.182403433134       83.510838297044        3.351720234882
W       -47.046003228370       81.932333093738        8.900940635285
W       -50.182409687106       76.067097632435       10.050360728316
W       -47.046003278563       89.415150084643        2.109840145687
W       -50.182403426878       95.000485985554        3.351720234882
W       -47.046003222114       93.421980782248        8.900940635285
W       -50.182409680849       87.556745320945       10.050360728316
W       -47.046003272307      100.904797773154        2.109840145687
W       -50.182403420622      106.490133674065        3.351720234882
W       -47.046003215858      104.911628470759        8.900940635285
W       -50.182409674593       99.046393009456       10.050360728316
W       -47.046003266051      112.394445461664        2.109840145687
W       -50.182403414366      117.979781362575        3.351720234882
W       -47.046003209601      116.401276159269        8.900940635285
W       -50.182409831430      110.536040697966       10.050360728316
W       -47.046003259795      123.884093150174        2.109840145687
W       -50.182403408110      129.469429051085        3.351720234882
W       -47.046003203345      127.890923847779        8.900940635285
W       -50.182409825174      122.025688386477       10.050360728316
W       -47.046003253539      135.373740838685        2.109840145687
W       -50.182403401854      140.959076739596        3.351720234882
W       -47.046003197089      139.380571536290        8.900940635285
W       -50.182409818918      133.515336074987       10.050360728316
W       -47.046003247282      146.863388527195        2.109840145687
W       -50.182403558690      152.448724428106        3.351720234882
W       -47.046003190833      150.870219224800        8.900940635285
W       -50.182409812661      145.004983763497       10.050360728316
W       -47.046003241026      158.353036215705        2.109840145687
W       -50.182403552434      163.938372116616        3.351720234882
W       -47.046003184577      162.359866913310        8.900940635285
W       -50.182409806405      156.494631452008       10.050360728316
W       -47.046003234770      169.842683904216        2.109840145687
W       -50.182403546178      175.428019805127        3.351720234882
W       -47.046003341413      173.849514601821        8.900940635285
W       -50.182409800149      167.984279140518       10.050360728316
W       -47.046003228514      181.332331592726        2.109840145687
W       -50.182403539922      186.917667493637        3.351720234882
W       -47.046003335157      185.339162290331        8.900940635285
W       -50.182409793893      179.473926829028       10.050360728316
W       -47.046003222258      192.821979281237        2.109840145687
W       -50.182403533665      198.407315182147        3.351720234882
W       -47.046003328901      196.828809978842        8.900940635285
W       -50.182409787637      190.963574517539       10.050360728316
W       -47.046003216002      204.311626969747        2.109840145687
W       -50.182403527409      209.896962870658        3.351720234882
W       -47.046003322645      208.318457667352        8.900940635285
W       -50.182409781381      202.453222206049       10.050360728316
W       -53.318803643745     -209.315690241743        2.109840145687
W       -56.455203955153     -203.730354340832        3.351720234882
W       -53.318803750389     -205.308859544138        8.900940635285
W       -56.455210209124     -211.174095005441       10.050360728316
W       -53.318803637489     -197.826042553232        2.109840145687
W       -56.455203948897     -192.240706652322        3.351720234882
W       -53.318803744133     -193.819211855627        8.900940635285
W       -56.455210196595     -199.684446891813       10.050360728316
W       -53.318803631233     -186.336394864722        2.109840145687
W       -56.455203942641     -180.751058963811        3.351720234882
W       -53.318803737876     -182.329564167117        8.900940635285
W       -56.455210190339     -188.194799203303       10.050360728316
W       -53.318803624977     -174.846747176212        2.109840145687
W       -56.455203936385     -169.261411275301        3.351720234882
W       -53.318803731620     -170.839916478607        8.900940635285
W       -56.455210184083     -176.705151514793       10.050360728316
W       -53.318803618721     -163.357099487701        2.109840145687
W       -56.455203930128     -157.771763586791        3.351720234882
W       -53.318803725364     -159.350268790096        8.900940635285
W       -56.455210177827     -165.215503826282       10.050360728316
W       -53.318803775557     -151.867451799191        2.109840145687
W       -56.455203923872     -146.282115898280        3.351720234882
W       -53.318803719108     -147.860621101586        8.900940635285
W       -56.455210171571     -153.725856137772       10.050360728316
W       -53.318803769301     -140.377804110681        2.109840145687
W       -56.455203911343     -134.792467784653        3.351720234882
W       -53.318803712852     -136.370973413076        8.900940635285
W       -56.455210165315     -142.236208449262       10.050360728316
W       -53.318803763045     -128.888156422170        2.109840145687
W       -56.455203905087     -123.302820096142        3.351720234882
W       -53.318803706596     -124.881325724565        8.900940635285
W       -56.455210159058     -130.746560760751       10.050360728316
W       -53.318803756789     -117.398508733660        2.109840145687
W       -56.455203898831     -111.813172407632        3.351720234882
W       -53.318803700339     -113.391678036055        8.900940635285
W       -56.455210152802     -119.256913072241       10.050360728316
W       -53.318803750533     -105.908861045150        2.109840145687
W       -56.455203892575     -100.323524719122        3.351720234882
W       -53.318803694083     -101.902030347545        8.900940635285
W       -56.455210146546     -107.767265383731       10.050360728316
W       -53.318803744276      -94.419213356639        2.109840145687
W       -56.455203886319      -88.833877030611        3.351720234882
W       -53.318803681554      -90.412382233917        8.900940635285
W       -56.455210140290      -96.277617695220       10.050360728316
W       -53.318803738020      -82.929565668129        2.109840145687
W       -56.455203880062      -77.344229342101        3.351720234882
W       -53.318803675298      -78.922734545407        8.900940635285
W       -56.455210134034      -84.787970006710       10.050360728316
W       -53.318803731764      -71.439917979619        2.109840145687
W       -56.455203873806      -65.854581653591        3.351720234882
W       -53.318803669042      -67.433086856897        8.900940635285
W       -56.455210127778      -73.298322318199       10.050360728316
W       -53.318803725508      -59.950270291108        2.109840145687
W       -56.455203867550      -54.364933965080        3.351720234882
W       -53.318803662786      -55.943439168386        8.900940635285
W       -56.455210121521      -61.808674629689       10.050360728316
W       -53.318803719252      -48.460622602598        2.109840145687
W       -56.455203861294      -42.875286276570        3.351720234882
W       -53.318803656530      -44.453791479876        8.900940635285
W       -56.455210115265      -50.319026941179       10.050360728316
W       -53.318803712996      -36.970974914088        2.109840145687
W       -56.455203855038      -31.385638588060        3.351720234882
W       -53.318803650273      -32.964143791366        8.900940635285
W       -56.455210109009      -38.829379252668       10.050360728316
W       -53.318803706739      -25.481327225577        2.109840145687
W       -56.455203848782      -19.895990899549        3.351720234882
W       -53.318803644017      -21.474496102855        8.900940635285
W       -56.455210102753      -27.339731564158       10.050360728316
W       -53.318803700483      -13.991679537067        2.109840145687
W       -56.455203842525       -8.406343211039        3.351720234882
W       -53.318803637761       -9.984848414345        8.900940635285
W       -56.455210259590      -15.850083875648       10.050360728316
W       -53.318803694227       -2.502031848556        2.109840145687
W       -56.455203836269        3.083304477471        3.351720234882
W       -53.318803631505        1.504799274165        8.900940635285
W       -56.455210253333       -4.360436187137       10.050360728316
W       -53.318803681698        8.987616265071        2.109840145687
W       -56.455203830013       14.572952165982        3.351720234882
W       -53.318803625249       12.994446962676        8.900940635285
W       -56.455210247077        7.129211501373       10.050360728316
W       -53.318803675442       20.477263953581        2.109840145687
W       -56.455203986850       26.062599854492        3.351720234882
W       -53.318803618993       24.484094651186        8.900940635285
W       -56.455210240821       18.618859189883       10.050360728316
W       -53.318803669186       31.966911642092        2.109840145687
W       -56.455203980594       37.552247543002        3.351720234882
W       -53.318803612736       35.973742339697        8.900940635285
W       -56.455210234565       30.108506878394       10.050360728316
W       -53.318803662930       43.456559330602        2.109840145687
W       -56.455203974337       49.041895231513        3.351720234882
W       -53.318803769573       47.463390028207        8.900940635285
W       -56.455210228309       41.598154566904       10.050360728316
W       -53.318803656674       54.946207019112        2.109840145687
W       -56.455203968081       60.531542920023        3.351720234882
W       -53.318803763317       58.953037716717        8.900940635285
W       -56.455210222053       53.087802255414       10.050360728316
W       -53.318803650417       66.435854707623        2.109840145687
W       -56.455203961825       72.021190608533        3.351720234882
W       -53.318803757061       70.442685405228        8.900940635285
W       -56.455210215796       64.577449943925       10.050360728316
W       -53.318803644161       77.925502396133        2.109840145687
W       -56.455203955569       83.510838297044        3.351720234882
W       -53.318803750805       81.932333093738        8.900940635285
W       -56.455210209540       76.067097632435       10.050360728316
W       -53.318803637905       89.415150084643        2.109840145687
W       -56.455203949313       95.000485985554        3.351720234882
W       -53.318803744548       93.421980782248        8.900940635285
W       -56.455210203284       87.556745320945       10.050360728316
W       -53.318803631649      100.904797773154        2.109840145687
W       -56.455203943057      106.490133674065        3.351720234882
W       -53.318803738292      104.911628470759        8.900940635285
W       -56.455210197028       99.046393009456       10.050360728316
W       -53.318803625393      112.394445461664        2.109840145687
W       -56.455203936800      117.979781362575        3.351720234882
W       -53.318803732036      116.401276159269        8.900940635285
W       -56.455210190772      110.536040697966       10.050360728316
W       -53.318803619136      123.884093150174        2.109840145687
W       -56.455203930544      129.469429051085        3.351720234882
W       -53.318803725780      127.890923847779        8.900940635285
W       -56.455210184516      122.025688386477       10.050360728316
W       -53.318803612880      135.373740838685        2.109840145687
W       -56.455203924288      140.959076739596        3.351720234882
W       -53.318803719524      139.380571536290        8.900940635285
W       -56.455210178259      133.515336074987       10.050360728316
W       -53.318803769717      146.863388527195        2.109840145687
W       -56.455203918032      152.448724428106        3.351720234882
W       -53.318803713268      150.870219224800        8.900940635285
W       -56.455210172003      145.004983763497       10.050360728316
W       -53.318803763461      158.353036215705        2.109840145687
W       -56.455203911776      163.938372116616        3.351720234882
W       -53.318803707011      162.359866913310        8.900940635285
W       -56.455210165747      156.494631452008       10.050360728316
W       -53.318803757205      169.842683904216        2.109840145687
W       -56.455203905520      175.428019805127        3.351720234882
W       -53.318803700755      173.849514601821        8.900940635285
W       -56.455210159491      167.984279140518       10.050360728316
W       -53.318803750948      181.332331592726        2.109840145687
W       -56.455203899263      186.917667493637        3.351720234882
W       -53.318803694499      185.339162290331        8.900940635285
W       -56.455210153235      179.473926829028       10.050360728316
W       -53.318803744692      192.821979281237        2.109840145687
W       -56.455203893007      198.407315182147        3.351720234882
W       -53.318803688243      196.828809978842        8.900940635285
W       -56.455210146979      190.963574517539       10.050360728316
W       -53.318803738436      204.311626969747        2.109840145687
W       -56.455203886751      209.896962870658        3.351720234882
W       -53.318803681987      208.318457667352        8.900940635285
W       -56.455210140722      202.453222206049       10.050360728316
W       -59.591604166180     -209.315690241743        2.109840145687
W       -62.728004314495     -203.730354340832        3.351720234882
W       -59.591604109731     -205.308859544138        8.900940635285
W       -62.728010568466     -211.174095005441       10.050360728316
W       -59.591604159924     -197.826042553232        2.109840145687
W       -62.728004308239     -192.240706652322        3.351720234882
W       -59.591604103474     -193.819211855627        8.900940635285
W       -62.728010555937     -199.684446891813       10.050360728316
W       -59.591604153668     -186.336394864722        2.109840145687
W       -62.728004301983     -180.751058963811        3.351720234882
W       -59.591604097218     -182.329564167117        8.900940635285
W       -62.728010549681     -188.194799203303       10.050360728316
W       -59.591604147411     -174.846747176212        2.109840145687
W       -62.728004295726     -169.261411275301        3.351720234882
W       -59.591604090962     -170.839916478607        8.900940635285
W       -62.728010543425     -176.705151514793       10.050360728316
W       -59.591604141155     -163.357099487701        2.109840145687
W       -62.728004289470     -157.771763586791        3.351720234882
W       -59.591604084706     -159.350268790096        8.900940635285
W       -62.728010537169     -165.215503826282       10.050360728316
W       -59.591604134899     -151.867451799191        2.109840145687
W       -62.728004283214     -146.282115898280        3.351720234882
W       -59.591604078450     -147.860621101586        8.900940635285
W       -62.728010694005     -153.725856137772       10.050360728316
W       -59.591604128643     -140.377804110681        2.109840145687
W       -62.728004270685     -134.792467784653        3.351720234882
W       -59.591604072194     -136.370973413076        8.900940635285
W       -62.728010687749     -142.236208449262       10.050360728316
W       -59.591604122387     -128.888156422170        2.109840145687
W       -62.728004264429     -123.302820096142        3.351720234882
W       -59.591604065937     -124.881325724565        8.900940635285
W       -62.728010681493     -130.746560760751       10.050360728316
W       -59.591604116131     -117.398508733660        2.109840145687
W       -62.728004421266     -111.813172407632        3.351720234882
W       -59.591604059681     -113.391678036055        8.900940635285
W       -62.728010675237     -119.256913072241       10.050360728316
W       -59.591604109874     -105.908861045150        2.109840145687
W       -62.728004415009     -100.323524719122        3.351720234882
W       -59.591604053425     -101.902030347545        8.900940635285
W       -62.728010668981     -107.767265383731       10.050360728316
W       -59.591604103618      -94.419213356639        2.109840145687
W       -62.728004408753      -88.833877030611        3.351720234882
W       -59.591604203989      -90.412382233917        8.900940635285
W       -62.728010662725      -96.277617695220       10.050360728316
W       -59.591604097362      -82.929565668129        2.109840145687
W       -62.728004402497      -77.344229342101        3.351720234882
W       -59.591604197733      -78.922734545407        8.900940635285
W       -62.728010656468      -84.787970006710       10.050360728316
W       -59.591604091106      -71.439917979619        2.109840145687
W       -62.728004396241      -65.854581653591        3.351720234882
W       -59.591604191477      -67.433086856897        8.900940635285
W       -62.728010650212      -73.298322318199       10.050360728316
W       -59.591604084850      -59.950270291108        2.109840145687
W       -62.728004389985      -54.364933965080        3.351720234882
W       -59.591604185220      -55.943439168386        8.900940635285
W       -62.728010643956      -61.808674629689       10.050360728316
W       -59.591604078594      -48.460622602598        2.109840145687
W       -62.728004383729      -42.875286276570        3.351720234882
W       -59.591604178964      -44.453791479876        8.900940635285
W       -62.728010637700      -50.319026941179       10.050360728316
W       -59.591604072337      -36.970974914088        2.109840145687
W       -62.728004377472      -31.385638588060        3.351720234882
W       -59.591604172708      -32.964143791366        8.900940635285
W       -62.728010631444      -38.829379252668       10.050360728316
W       -59.591604066081      -25.481327225577        2.109840145687
W       -62.728004371216      -19.895990899549        3.351720234882
W       -59.591604166452      -21.474496102855        8.900940635285
W       -62.728010625188      -27.339731564158       10.050360728316
W       -59.591604059825      -13.991679537067        2.109840145687
W       -62.728004364960       -8.406343211039        3.351720234882
W       -59.591604160196       -9.984848414345        8.900940635285
W       -62.728010618931      -15.850083875648       10.050360728316
W       -59.591604053569       -2.502031848556        2.109840145687
W       -62.728004358704        3.083304477471        3.351720234882
W       -59.591604153940        1.504799274165        8.900940635285
W       -62.728010612675       -4.360436187137       10.050360728316
W       -59.591604204133        8.987616265071        2.109840145687
W       -62.728004352448       14.572952165982        3.351720234882
W       -59.591604147683       12.994446962676        8.900940635285
W       -62.728010606419        7.129211501373       10.050360728316
W       -59.591604197877       20.477263953581        2.109840145687
W       -62.728004346192       26.062599854492        3.351720234882
W       -59.591604141427       24.484094651186        8.900940635285
W       -62.728010600163       18.618859189883       10.050360728316
W       -59.591604191620       31.966911642092        2.109840145687
W       -62.728004339935       37.552247543002        3.351720234882
W       -59.591604135171       35.973742339697        8.900940635285
W       -62.728010593907       30.108506878394       10.050360728316
W       -59.591604185364       43.456559330602        2.109840145687
W       -62.728004333679       49.041895231513        3.351720234882
W       -59.591604128915       47.463390028207        8.900940635285
W       -62.728010587650       41.598154566904       10.050360728316
W       -59.591604179108       54.946207019112        2.109840145687
W       -62.728004327423       60.531542920023        3.351720234882
W       -59.591604122659       58.953037716717        8.900940635285
W       -62.728010581394       53.087802255414       10.050360728316
W       -59.591604172852       66.435854707623        2.109840145687
W       -62.728004321167       72.021190608533        3.351720234882
W       -59.591604116403       70.442685405228        8.900940635285
W       -62.728010575138       64.577449943925       10.050360728316
W       -59.591604166596       77.925502396133        2.109840145687
W       -62.728004314911       83.510838297044        3.351720234882
W       -59.591604110146       81.932333093738        8.900940635285
W       -62.728010568882       76.067097632435       10.050360728316
W       -59.591604160340       89.415150084643        2.109840145687
W       -62.728004308655       95.000485985554        3.351720234882
W       -59.591604103890       93.421980782248        8.900940635285
W       -62.728010562626       87.556745320945       10.050360728316
W       -59.591604154083      100.904797773154        2.109840145687
W       -62.728004302398      106.490133674065        3.351720234882
W       -59.591604097634      104.911628470759        8.900940635285
W       -62.728010556370       99.046393009456       10.050360728316
W       -59.591604147827      112.394445461664        2.109840145687
W       -62.728004296142      117.979781362575        3.351720234882
W       -59.591604091378      116.401276159269        8.900940635285
W       -62.728010550113      110.536040697966       10.050360728316
W       -59.591604141571      123.884093150174        2.109840145687
W       -62.728004289886      129.469429051085        3.351720234882
W       -59.591604085122      127.890923847779        8.900940635285
W       -62.728010543857      122.025688386477       10.050360728316
W       -59.591604135315      135.373740838685        2.109840145687
W       -62.728004283630      140.959076739596        3.351720234882
W       -59.591604078866      139.380571536290        8.900940635285
W       -62.728010700694      133.515336074987       10.050360728316
W       -59.591604129059      146.863388527195        2.109840145687
W       -62.728004277374      152.448724428106        3.351720234882
W       -59.591604072609      150.870219224800        8.900940635285
W       -62.728010694438      145.004983763497       10.050360728316
W       -59.591604122803      158.353036215705        2.109840145687
W       -62.728004271118      163.938372116616        3.351720234882
W       -59.591604066353      162.359866913310        8.900940635285
W       -62.728010688182      156.494631452008       10.050360728316
W       -59.591604116546      169.842683904216        2.109840145687
W       -62.728004427954      175.428019805127        3.351720234882
W       -59.591604060097      173.849514601821        8.900940635285
W       -62.728010681925      167.984279140518       10.050360728316
W       -59.591604110290      181.332331592726        2.109840145687
W       -62.728004421698      186.917667493637        3.351720234882
W       -59.591604053841      185.339162290331        8.900940635285
W       -62.728010675669      179.473926829028       10.050360728316
W       -59.591604104034      192.821979281237        2.109840145687
W       -62.728004415442      198.407315182147        3.351720234882
W       -59.591604210677      196.828809978842        8.900940635285
W       -62.728010669413      190.963574517539       10.050360728316
W       -59.591604097778      204.311626969747        2.109840145687
W       -62.728004409186      209.896962870658        3.351720234882
W       -59.591604204421      208.318457667352        8.900940635285
W       -62.728010663157      202.453222206049       10.050360728316
W       -65.864404525522     -209.315690241743        2.109840145687
W       -69.000804836930     -203.730354340832        3.351720234882
W       -65.864404632165     -205.308859544138        8.900940635285
W       -69.000811090901     -211.174095005441       10.050360728316
W       -65.864404519266     -197.826042553232        2.109840145687
W       -69.000804830673     -192.240706652322        3.351720234882
W       -65.864404625909     -193.819211855627        8.900940635285
W       -69.000811078372     -199.684446891813       10.050360728316
W       -65.864404513009     -186.336394864722        2.109840145687
W       -69.000804824417     -180.751058963811        3.351720234882
W       -65.864404619653     -182.329564167117        8.900940635285
W       -69.000811072116     -188.194799203303       10.050360728316
W       -65.864404506753     -174.846747176212        2.109840145687
W       -69.000804818161     -169.261411275301        3.351720234882
W       -65.864404613397     -170.839916478607        8.900940635285
W       -69.000811065859     -176.705151514793       10.050360728316
W       -65.864404500497     -163.357099487701        2.109840145687
W       -69.000804811905     -157.771763586791        3.351720234882
W       -65.864404607140     -159.350268790096        8.900940635285
W       -69.000811059603     -165.215503826282       10.050360728316
W       -65.864404494241     -151.867451799191        2.109840145687
W       -69.000804805649     -146.282115898280        3.351720234882
W       -65.864404600884     -147.860621101586        8.900940635285
W       -69.000811053347     -153.725856137772       10.050360728316
W       -65.864404487985     -140.377804110681        2.109840145687
W       -69.000804793120     -134.792467784653        3.351720234882
W       -65.864404594628     -136.370973413076        8.900940635285
W       -69.000811047091     -142.236208449262       10.050360728316
W       -65.864404644821     -128.888156422170        2.109840145687
W       -69.000804786864     -123.302820096142        3.351720234882
W       -65.864404588372     -124.881325724565        8.900940635285
W       -69.000811040835     -130.746560760751       10.050360728316
W       -65.864404638565     -117.398508733660        2.109840145687
W       -69.000804780607     -111.813172407632        3.351720234882
W       -65.864404582116     -113.391678036055        8.900940635285
W       -69.000811034579     -119.256913072241       10.050360728316
W       -65.864404632309     -105.908861045150        2.109840145687
W       -69.000804774351     -100.323524719122        3.351720234882
W       -65.864404575860     -101.902030347545        8.900940635285
W       -69.000811028322     -107.767265383731       10.050360728316
W       -65.864404626053      -94.419213356639        2.109840145687
W       -69.000804768095      -88.833877030611        3.351720234882
W       -65.864404563331      -90.412382233917        8.900940635285
W       -69.000811022066      -96.277617695220       10.050360728316
W       -65.864404619797      -82.929565668129        2.109840145687
W       -69.000804761839      -77.344229342101        3.351720234882
W       -65.864404557074      -78.922734545407        8.900940635285
W       -69.000811015810      -84.787970006710       10.050360728316
W       -65.864404613541      -71.439917979619        2.109840145687
W       -69.000804755583      -65.854581653591        3.351720234882
W       -65.864404550818      -67.433086856897        8.900940635285
W       -69.000811009554      -73.298322318199       10.050360728316
W       -65.864404607284      -59.950270291108        2.109840145687
W       -69.000804749327      -54.364933965080        3.351720234882
W       -65.864404544562      -55.943439168386        8.900940635285
W       -69.000811003298      -61.808674629689       10.050360728316
W       -65.864404601028      -48.460622602598        2.109840145687
W       -69.000804743070      -42.875286276570        3.351720234882
W       -65.864404538306      -44.453791479876        8.900940635285
W       -69.000810997042      -50.319026941179       10.050360728316
W       -65.864404594772      -36.970974914088        2.109840145687
W       -69.000804736814      -31.385638588060        3.351720234882
W       -65.864404532050      -32.964143791366        8.900940635285
W       -69.000810990785      -38.829379252668       10.050360728316
W       -65.864404588516      -25.481327225577        2.109840145687
W       -69.000804730558      -19.895990899549        3.351720234882
W       -65.864404525794      -21.474496102855        8.900940635285
W       -69.000810984529      -27.339731564158       10.050360728316
W       -65.864404582260      -13.991679537067        2.109840145687
W       -69.000804724302       -8.406343211039        3.351720234882
W       -65.864404519537       -9.984848414345        8.900940635285
W       -69.000810978273      -15.850083875648       10.050360728316
W       -65.864404576004       -2.502031848556        2.109840145687
W       -69.000804718046        3.083304477471        3.351720234882
W       -65.864404513281        1.504799274165        8.900940635285
W       -69.000810972017       -4.360436187137       10.050360728316
W       -65.864404563475        8.987616265071        2.109840145687
W       -69.000804711790       14.572952165982        3.351720234882
W       -65.864404507025       12.994446962676        8.900940635285
W       -69.000811128854        7.129211501373       10.050360728316
W       -65.864404557218       20.477263953581        2.109840145687
W       -69.000804705533       26.062599854492        3.351720234882
W       -65.864404500769       24.484094651186        8.900940635285
W       -69.000811122597       18.618859189883       10.050360728316
W       -65.864404550962       31.966911642092        2.109840145687
W       -69.000804699277       37.552247543002        3.351720234882
W       -65.864404494513       35.973742339697        8.900940635285
W       -69.000811116341       30.108506878394       10.050360728316
W       -65.864404544706       43.456559330602        2.109840145687
W       -69.000804856114       49.041895231513        3.351720234882
W       -65.864404488257       47.463390028207        8.900940635285
W       -69.000811110085       41.598154566904       10.050360728316
W       -65.864404538450       54.946207019112        2.109840145687
W       -69.000804849858       60.531542920023        3.351720234882
W       -65.864404482000       58.953037716717        8.900940635285
W       -69.000811103829       53.087802255414       10.050360728316
W       -65.864404532194       66.435854707623        2.109840145687
W       -69.000804843601       72.021190608533        3.351720234882
W       -65.864404638837       70.442685405228        8.900940635285
W       -69.000811097573       64.577449943925       10.050360728316
W       -65.864404525938       77.925502396133        2.109840145687
W       -69.000804837345       83.510838297044        3.351720234882
W       -65.864404632581       81.932333093738        8.900940635285
W       -69.000811091317       76.067097632435       10.050360728316
W       -65.864404519681       89.415150084643        2.109840145687
W       -69.000804831089       95.000485985554        3.351720234882
W       -65.864404626325       93.421980782248        8.900940635285
W       -69.000811085060       87.556745320945       10.050360728316
W       -65.864404513425      100.904797773154        2.109840145687
W       -69.000804824833      106.490133674065        3.351720234882
W       -65.864404620069      104.911628470759        8.900940635285
W       -69.000811078804       99.046393009456       10.050360728316
W       -65.864404507169      112.394445461664        2.109840145687
W       -69.000804818577      117.979781362575        3.351720234882
W       -65.864404613812      116.401276159269        8.900940635285
W       -69.000811072548      110.536040697966       10.050360728316
W       -65.864404500913      123.884093150174        2.109840145687
W       -69.000804812321      129.469429051085        3.351720234882
W       -65.864404607556      127.890923847779        8.900940635285
W       -69.000811066292      122.025688386477       10.050360728316
W       -65.864404494657      135.373740838685        2.109840145687
W       -69.000804806064      140.959076739596        3.351720234882
W       -65.864404601300      139.380571536290        8.900940635285
W       -69.000811060036      133.515336074987       10.050360728316
W       -65.864404488401      146.863388527195        2.109840145687
W       -69.000804799808      152.448724428106        3.351720234882
W       -65.864404595044      150.870219224800        8.900940635285
W       -69.000811053780      145.004983763497       10.050360728316
W       -65.864404482144      158.353036215705        2.109840145687
W       -69.000804793552      163.938372116616        3.351720234882
W       -65.864404588788      162.359866913310        8.900940635285
W       -69.000811047523      156.494631452008       10.050360728316
W       -65.864404638981      169.842683904216        2.109840145687
W       -69.000804787296      175.428019805127        3.351720234882
W       -65.864404582532      173.849514601821        8.900940635285
W       -69.000811041267      167.984279140518       10.050360728316
W       -65.864404632725      181.332331592726        2.109840145687
W       -69.000804781040      186.917667493637        3.351720234882
W       -65.864404576275      185.339162290331        8.900940635285
W       -69.000811035011      179.473926829028       10.050360728316
W       -65.864404626469      192.821979281237        2.109840145687
W       -69.000804774784      198.407315182147        3.351720234882
W       -65.864404570019      196.828809978842        8.900940635285
W       -69.000811028755      190.963574517539       10.050360728316
W       -65.864404620212      204.311626969747        2.109840145687
W       -69.000804768527      209.896962870658        3.351720234882
W       -65.864404563763      208.318457667352        8.900940635285
W       -69.000811022499      202.453222206049       10.050360728316
W       -72.137205047956     -209.315690241743        2.109840145687
W       -75.273605196271     -203.730354340832        3.351720234882
W       -72.137204991507     -205.308859544138        8.900940635285
W       -75.273611450243     -211.174095005441       10.050360728316
W       -72.137205041700     -197.826042553232        2.109840145687
W       -75.273605190015     -192.240706652322        3.351720234882
W       -72.137204985251     -193.819211855627        8.900940635285
W       -75.273611437714     -199.684446891813       10.050360728316
W       -72.137205035444     -186.336394864722        2.109840145687
W       -75.273605183759     -180.751058963811        3.351720234882
W       -72.137204978995     -182.329564167117        8.900940635285
W       -75.273611431457     -188.194799203303       10.050360728316
W       -72.137205029188     -174.846747176212        2.109840145687
W       -75.273605177503     -169.261411275301        3.351720234882
W       -72.137204972738     -170.839916478607        8.900940635285
W       -75.273611425201     -176.705151514793       10.050360728316
W       -72.137205022932     -163.357099487701        2.109840145687
W       -75.273605171247     -157.771763586791        3.351720234882
W       -72.137204966482     -159.350268790096        8.900940635285
W       -75.273611418945     -165.215503826282       10.050360728316
W       -72.137205016675     -151.867451799191        2.109840145687
W       -75.273605164990     -146.282115898280        3.351720234882
W       -72.137204960226     -147.860621101586        8.900940635285
W       -75.273611412689     -153.725856137772       10.050360728316
W       -72.137205010419     -140.377804110681        2.109840145687
W       -75.273605152461     -134.792467784653        3.351720234882
W       -72.137204953970     -136.370973413076        8.900940635285
W       -75.273611406433     -142.236208449262       10.050360728316
W       -72.137205004163     -128.888156422170        2.109840145687
W       -75.273605146205     -123.302820096142        3.351720234882
W       -72.137204947714     -124.881325724565        8.900940635285
W       -75.273611563269     -130.746560760751       10.050360728316
W       -72.137204997907     -117.398508733660        2.109840145687
W       -75.273605139949     -111.813172407632        3.351720234882
W       -72.137204941458     -113.391678036055        8.900940635285
W       -75.273611557013     -119.256913072241       10.050360728316
W       -72.137204991651     -105.908861045150        2.109840145687
W       -75.273605133693     -100.323524719122        3.351720234882
W       -72.137204935201     -101.902030347545        8.900940635285
W       -75.273611550757     -107.767265383731       10.050360728316
W       -72.137204985395      -94.419213356639        2.109840145687
W       -75.273605290530      -88.833877030611        3.351720234882
W       -72.137204922672      -90.412382233917        8.900940635285
W       -75.273611544501      -96.277617695220       10.050360728316
W       -72.137204979138      -82.929565668129        2.109840145687
W       -75.273605284273      -77.344229342101        3.351720234882
W       -72.137204916416      -78.922734545407        8.900940635285
W       -75.273611538245      -84.787970006710       10.050360728316
W       -72.137204972882      -71.439917979619        2.109840145687
W       -75.273605278017      -65.854581653591        3.351720234882
W       -72.137205073253      -67.433086856897        8.900940635285
W       -75.273611531989      -73.298322318199       10.050360728316
W       -72.137204966626      -59.950270291108        2.109840145687
W       -75.273605271761      -54.364933965080        3.351720234882
W       -72.137205066997      -55.943439168386        8.900940635285
W       -75.273611525732      -61.808674629689       10.050360728316
W       -72.137204960370      -48.460622602598        2.109840145687
W       -75.273605265505      -42.875286276570        3.351720234882
W       -72.137205060741      -44.453791479876        8.900940635285
W       -75.273611519476      -50.319026941179       10.050360728316
W       -72.137204954114      -36.970974914088        2.109840145687
W       -75.273605259249      -31.385638588060        3.351720234882
W       -72.137205054484      -32.964143791366        8.900940635285
W       -75.273611513220      -38.829379252668       10.050360728316
W       -72.137204947858      -25.481327225577        2.109840145687
W       -75.273605252993      -19.895990899549        3.351720234882
W       -72.137205048228      -21.474496102855        8.900940635285
W       -75.273611506964      -27.339731564158       10.050360728316
W       -72.137204941601      -13.991679537067        2.109840145687
W       -75.273605246736       -8.406343211039        3.351720234882
W       -72.137205041972       -9.984848414345        8.900940635285
W       -75.273611500708      -15.850083875648       10.050360728316
W       -72.137204935345       -2.502031848556        2.109840145687
W       -75.273605240480        3.083304477471        3.351720234882
W       -72.137205035716        1.504799274165        8.900940635285
W       -75.273611494452       -4.360436187137       10.050360728316
W       -72.137204922816        8.987616265071        2.109840145687
W       -75.273605234224       14.572952165982        3.351720234882
W       -72.137205029460       12.994446962676        8.900940635285
W       -75.273611488195        7.129211501373       10.050360728316
W       -72.137204916560       20.477263953581        2.109840145687
W       -75.273605227968       26.062599854492        3.351720234882
W       -72.137205023204       24.484094651186        8.900940635285
W       -75.273611481939       18.618859189883       10.050360728316
W       -72.137205073397       31.966911642092        2.109840145687
W       -75.273605221712       37.552247543002        3.351720234882
W       -72.137205016947       35.973742339697        8.900940635285
W       -75.273611475683       30.108506878394       10.050360728316
W       -72.137205067141       43.456559330602        2.109840145687
W       -75.273605215456       49.041895231513        3.351720234882
W       -72.137205010691       47.463390028207        8.900940635285
W       -75.273611469427       41.598154566904       10.050360728316
W       -72.137205060884       54.946207019112        2.109840145687
W       -75.273605209199       60.531542920023        3.351720234882
W       -72.137205004435       58.953037716717        8.900940635285
W       -75.273611463171       53.087802255414       10.050360728316
W       -72.137205054628       66.435854707623        2.109840145687
W       -75.273605202943       72.021190608533        3.351720234882
W       -72.137204998179       70.442685405228        8.900940635285
W       -75.273611456915       64.577449943925       10.050360728316
W       -72.137205048372       77.925502396133        2.109840145687
W       -75.273605196687       83.510838297044        3.351720234882
W       -72.137204991923       81.932333093738        8.900940635285
W       -75.273611450658       76.067097632435       10.050360728316
W       -72.137205042116       89.415150084643        2.109840145687
W       -75.273605190431       95.000485985554        3.351720234882
W       -72.137204985667       93.421980782248        8.900940635285
W       -75.273611444402       87.556745320945       10.050360728316
W       -72.137205035860      100.904797773154        2.109840145687
W       -75.273605184175      106.490133674065        3.351720234882
W       -72.137204979410      104.911628470759        8.900940635285
W       -75.273611438146       99.046393009456       10.050360728316
W       -72.137205029604      112.394445461664        2.109840145687
W       -75.273605177919      117.979781362575        3.351720234882
W       -72.137204973154      116.401276159269        8.900940635285
W       -75.273611431890      110.536040697966       10.050360728316
W       -72.137205023347      123.884093150174        2.109840145687
W       -75.273605171662      129.469429051085        3.351720234882
W       -72.137204966898      127.890923847779        8.900940635285
W       -75.273611425634      122.025688386477       10.050360728316
W       -72.137205017091      135.373740838685        2.109840145687
W       -75.273605165406      140.959076739596        3.351720234882
W       -72.137204960642      139.380571536290        8.900940635285
W       -75.273611419378      133.515336074987       10.050360728316
W       -72.137205010835      146.863388527195        2.109840145687
W       -75.273605159150      152.448724428106        3.351720234882
W       -72.137204954386      150.870219224800        8.900940635285
W       -75.273611413121      145.004983763497       10.050360728316
W       -72.137205004579      158.353036215705        2.109840145687
W       -75.273605152894      163.938372116616        3.351720234882
W       -72.137204948130      162.359866913310        8.900940635285
W       -75.273611569958      156.494631452008       10.050360728316
W       -72.137204998323      169.842683904216        2.109840145687
W       -75.273605146638      175.428019805127        3.351720234882
W       -72.137204941873      173.849514601821        8.900940635285
W       -75.273611563702      167.984279140518       10.050360728316
W       -72.137204992067      181.332331592726        2.109840145687
W       -75.273605140382      186.917667493637        3.351720234882
W       -72.137204935617      185.339162290331        8.900940635285
W       -75.273611557446      179.473926829028       10.050360728316
W       -72.137204985810      192.821979281237        2.109840145687
W       -75.273605297218      198.407315182147        3.351720234882
W       -72.137204929361      196.828809978842        8.900940635285
W       -75.273611551189      190.963574517539       10.050360728316
W       -72.137204979554      204.311626969747        2.109840145687
W       -75.273605290962      209.896962870658        3.351720234882
W       -72.137204923105      208.318457667352        8.900940635285
W       -75.273611544933      202.453222206049       10.050360728316
W       -78.410005407298     -209.315690241743        2.109840145687
W       -81.546405718706     -203.730354340832        3.351720234882
W       -78.410005513942     -205.308859544138        8.900940635285
W       -81.546411972677     -211.174095005441       10.050360728316
W       -78.410005401042     -197.826042553232        2.109840145687
W       -81.546405712450     -192.240706652322        3.351720234882
W       -78.410005507685     -193.819211855627        8.900940635285
W       -81.546411960148     -199.684446891813       10.050360728316
W       -78.410005394786     -186.336394864722        2.109840145687
W       -81.546405706194     -180.751058963811        3.351720234882
W       -78.410005501429     -182.329564167117        8.900940635285
W       -81.546411953892     -188.194799203303       10.050360728316
W       -78.410005388530     -174.846747176212        2.109840145687
W       -81.546405699937     -169.261411275301        3.351720234882
W       -78.410005495173     -170.839916478607        8.900940635285
W       -81.546411947636     -176.705151514793       10.050360728316
W       -78.410005382273     -163.357099487701        2.109840145687
W       -81.546405693681     -157.771763586791        3.351720234882
W       -78.410005488917     -159.350268790096        8.900940635285
W       -81.546411941380     -165.215503826282       10.050360728316
W       -78.410005376017     -151.867451799191        2.109840145687
W       -81.546405687425     -146.282115898280        3.351720234882
W       -78.410005482661     -147.860621101586        8.900940635285
W       -81.546411935124     -153.725856137772       10.050360728316
W       -78.410005369761     -140.377804110681        2.109840145687
W       -81.546405674896     -134.792467784653        3.351720234882
W       -78.410005476405     -136.370973413076        8.900940635285
W       -81.546411928867     -142.236208449262       10.050360728316
W       -78.410005363505     -128.888156422170        2.109840145687
W       -81.546405668640     -123.302820096142        3.351720234882
W       -78.410005470148     -124.881325724565        8.900940635285
W       -81.546411922611     -130.746560760751       10.050360728316
W       -78.410005357249     -117.398508733660        2.109840145687
W       -81.546405662384     -111.813172407632        3.351720234882
W       -78.410005463892     -113.391678036055        8.900940635285
W       -81.546411916355     -119.256913072241       10.050360728316
W       -78.410005514085     -105.908861045150        2.109840145687
W       -81.546405656128     -100.323524719122        3.351720234882
W       -78.410005457636     -101.902030347545        8.900940635285
W       -81.546411910099     -107.767265383731       10.050360728316
W       -78.410005507829      -94.419213356639        2.109840145687
W       -81.546405649871      -88.833877030611        3.351720234882
W       -78.410005445107      -90.412382233917        8.900940635285
W       -81.546411903843      -96.277617695220       10.050360728316
W       -78.410005501573      -82.929565668129        2.109840145687
W       -81.546405643615      -77.344229342101        3.351720234882
W       -78.410005438851      -78.922734545407        8.900940635285
W       -81.546411897586      -84.787970006710       10.050360728316
W       -78.410005495317      -71.439917979619        2.109840145687
W       -81.546405637359      -65.854581653591        3.351720234882
W       -78.410005432595      -67.433086856897        8.900940635285
W       -81.546411891330      -73.298322318199       10.050360728316
W       -78.410005489061      -59.950270291108        2.109840145687
W       -81.546405631103      -54.364933965080        3.351720234882
W       -78.410005426339      -55.943439168386        8.900940635285
W       -81.546411885074      -61.808674629689       10.050360728316
W       -78.410005482805      -48.460622602598        2.109840145687
W       -81.546405624847      -42.875286276570        3.351720234882
W       -78.410005420082      -44.453791479876        8.900940635285
W       -81.546411878818      -50.319026941179       10.050360728316
W       -78.410005476548      -36.970974914088        2.109840145687
W       -81.546405618591      -31.385638588060        3.351720234882
W       -78.410005413826      -32.964143791366        8.900940635285
W       -81.546411872562      -38.829379252668       10.050360728316
W       -78.410005470292      -25.481327225577        2.109840145687
W       -81.546405612334      -19.895990899549        3.351720234882
W       -78.410005407570      -21.474496102855        8.900940635285
W       -81.546411866306      -27.339731564158       10.050360728316
W       -78.410005464036      -13.991679537067        2.109840145687
W       -81.546405606078       -8.406343211039        3.351720234882
W       -78.410005401314       -9.984848414345        8.900940635285
W       -81.546411860049      -15.850083875648       10.050360728316
W       -78.410005457780       -2.502031848556        2.109840145687
W        81.546405700178        3.083304477471        3.351720234882
W       -78.410005395058        1.504799274165        8.900940635285
W       -81.546411853793       -4.360436187137       10.050360728316
W       -78.410005445251        8.987616265071        2.109840145687
W        81.546405706434       14.572952165982        3.351720234882
W       -78.410005388802       12.994446962676        8.900940635285
W        81.546399452463        7.129211501373       10.050360728316
W       -78.410005438995       20.477263953581        2.109840145687
W        81.546405712690       26.062599854492        3.351720234882
W       -78.410005382545       24.484094651186        8.900940635285
W        81.546399295626       18.618859189883       10.050360728316
W       -78.410005432739       31.966911642092        2.109840145687
W        81.546405718946       37.552247543002        3.351720234882
W       -78.410005376289       35.973742339697        8.900940635285
W        81.546399301882       30.108506878394       10.050360728316
W       -78.410005426482       43.456559330602        2.109840145687
W        81.546405725203       49.041895231513        3.351720234882
W       -78.410005370033       47.463390028207        8.900940635285
W        81.546399308139       41.598154566904       10.050360728316
W       -78.410005420226       54.946207019112        2.109840145687
W        81.546405731459       60.531542920023        3.351720234882
W       -78.410005363777       58.953037716717        8.900940635285
W        81.546399314395       53.087802255414       10.050360728316
W       -78.410005413970       66.435854707623        2.109840145687
W        81.546405574622       72.021190608533        3.351720234882
W       -78.410005357521       70.442685405228        8.900940635285
W        81.546399320651       64.577449943925       10.050360728316
W       -78.410005407714       77.925502396133        2.109840145687
W        81.546405580878       83.510838297044        3.351720234882
W       -78.410005351265       81.932333093738        8.900940635285
W        81.546399326907       76.067097632435       10.050360728316
W       -78.410005401458       89.415150084643        2.109840145687
W        81.546405587134       95.000485985554        3.351720234882
W       -78.410005508101       93.421980782248        8.900940635285
W        81.546399333163       87.556745320945       10.050360728316
W       -78.410005395202      100.904797773154        2.109840145687
W        81.546405593391      106.490133674065        3.351720234882
W       -78.410005501845      104.911628470759        8.900940635285
W        81.546399339419       99.046393009456       10.050360728316
W       -78.410005388945      112.394445461664        2.109840145687
W        81.546405599647      117.979781362575        3.351720234882
W       -78.410005495589      116.401276159269        8.900940635285
W        81.546399345676      110.536040697966       10.050360728316
W       -78.410005382689      123.884093150174        2.109840145687
W        81.546405605903      129.469429051085        3.351720234882
W       -78.410005489333      127.890923847779        8.900940635285
W        81.546399351932      122.025688386477       10.050360728316
W       -78.410005376433      135.373740838685        2.109840145687
W        81.546405612159      140.959076739596        3.351720234882
W       -78.410005483076      139.380571536290        8.900940635285
W        81.546399358188      133.515336074987       10.050360728316
W       -78.410005370177      146.863388527195        2.109840145687
W        81.546405618415      152.448724428106        3.351720234882
W       -78.410005476820      150.870219224800        8.900940635285
W        81.546399364444      145.004983763497       10.050360728316
W       -78.410005363921      158.353036215705        2.109840145687
W        81.546405624671      163.938372116616        3.351720234882
W       -78.410005470564      162.359866913310        8.900940635285
W        81.546399370700      156.494631452008       10.050360728316
W       -78.410005357665      169.842683904216        2.109840145687
W        81.546405630928      175.428019805127        3.351720234882
W       -78.410005464308      173.849514601821        8.900940635285
W        81.546399376956      167.984279140518       10.050360728316
W       -78.410005351408      181.332331592726        2.109840145687
W        81.546405637184      186.917667493637        3.351720234882
W       -78.410005458052      185.339162290331        8.900940635285
W        81.546399383213      179.473926829028       10.050360728316
W       -78.410005508245      192.821979281237        2.109840145687
W        81.546405643440      198.407315182147        3.351720234882
W       -78.410005451796      196.828809978842        8.900940635285
W        81.546399389469      190.963574517539       10.050360728316
W       -78.410005501989      204.311626969747        2.109840145687
W        81.546405649696      209.896962870658        3.351720234882
W       -78.410005445539      208.318457667352        8.900940635285
W        81.546399395725      202.453222206049       10.050360728316
W        78.410005370267     -209.315690241743        2.109840145687
W        75.273605221952     -203.730354340832        3.351720234882
W        78.410005426717     -205.308859544138        8.900940635285
W        75.273598967981     -211.174095005441       10.050360728316
