<UPF version="2.0.1">
   <PP_INFO>
         UPF file from ATOMPAW code with following input
           S 16
           XC_GGA_X_PBE+XC_GGA_C_PBE scalarrelativistic loggrid 2000
           3 3 0 0 0 0
           3 1 4
           0 0 0
           c
           c
           v
           c
           v
           1
           1.9 1.40 1.7 1.1
           y
           4.0
           n
           y
           0.50
           n
           custom rrkj
           2 0.0
           1.9
           1.9
           1.9
           1.9
           PWSCFOUT
           UPFDX 1.25d-2 UPFXMIN -7. UPFZMESH 16.0
           END
  </PP_INFO>
  <!--                               -->
  <!-- END OF HUMAN READABLE SECTION -->
  <PP_HEADER generated="Generated using ATOMPAW code"
             author="   "
             date=" 11/30/2025, 11:47:22.039"
             element="S "
             pseudo_type="PAW"
             relativistic="scalar"
             is_ultrasoft="T"
             is_paw="T"
             is_coulomb="F"
             has_so="F"
             has_wfc="T"
             has_gipaw="T"
             paw_as_gipaw="T"
             core_correction="T"
             functional="SLA PW PBX PBC"
             z_valence=" 6.000"
             l_max="1"
             l_max_rho="2"
             mesh_size="   999"
             number_of_wfc="     4"
             number_of_proj=" 4"
                                    /> 
<PP_MESH dx=" 1.2500000000000E-02" mesh="   999" xmin="-7.0000000000000E+00" zmesh=" 1.6000000000000E+01">
 <PP_R type="real" size="   999" columns="3">
  5.69926228471572652E-05  5.77095017918138900E-05  5.84353979635363844E-05
  5.91704247850783732E-05  5.99146971058762411E-05  6.06683312199943054E-05
  6.14314448842961659E-05  6.22041573368444563E-05  6.29865893155319033E-05
  6.37788630769471621E-05  6.45811024154773139E-05  6.53934326826511578E-05
  6.62159808067256338E-05  6.70488753125185515E-05  6.78922463414911170E-05
  6.87462256720823892E-05  6.96109467403002030E-05  7.04865446605707705E-05
  7.13731562468504689E-05  7.22709200340036100E-05  7.31799762994484018E-05
  7.41004670850758024E-05  7.50325362194438026E-05  7.59763293402509180E-05
  7.69319939170925624E-05  7.78996792745030949E-05  7.88795366152884067E-05
  7.98717190441515263E-05  8.08763815916155001E-05  8.18936812382475046E-05
  8.29237769391869689E-05  8.39668296489829254E-05  8.50230023467433667E-05
  8.60924600616010674E-05  8.71753698984999235E-05  8.82719010643051019E-05
  8.93822248942421508E-05  9.05065148786684723E-05  9.16449466901814392E-05
  9.27976982110679274E-05  9.39649495610982730E-05  9.51468831256707231E-05
  9.63436835843093926E-05  9.75555379395207653E-05  9.87826355460135662E-05
  1.00025168140285270E-04  1.01283329870581668E-04  1.02557317327232878E-04
  1.03847329573370870E-04  1.05153568176033824E-04  1.06476237237660874E-04
  1.07815543427983897E-04  1.09171696016319980E-04  1.10544906904270042E-04
  1.11935390658829360E-04  1.13343364545913451E-04  1.14769048564306695E-04
  1.16212665480037563E-04  1.17674440861186084E-04  1.19154603113129782E-04
  1.20653383514231831E-04  1.22171016251979193E-04  1.23707738459574794E-04
  1.25263790252989942E-04  1.26839414768483376E-04  1.28434858200591182E-04
  1.30050369840595584E-04  1.31686202115477132E-04  1.33342610627356755E-04
  1.35019854193434656E-04  1.36718194886430318E-04  1.38437898075532306E-04
  1.40179232467862709E-04  1.41942470150462931E-04  1.43727886632808501E-04
  1.45535760889857111E-04  1.47366375405639556E-04  1.49220016217398339E-04
  1.51096972960281466E-04  1.52997538912598939E-04  1.54922011041647406E-04
  1.56870690050112409E-04  1.58843880423053646E-04  1.60841890475481249E-04
  1.62865032400531145E-04  1.64913622318245098E-04  1.66987980324965660E-04
  1.69088430543351667E-04  1.71215301173023024E-04  1.73368924541843038E-04
  1.75549637157844547E-04  1.77757779761810472E-04  1.79993697380515189E-04
  1.82257739380635480E-04  1.84550259523340413E-04  1.86871616019566270E-04
  1.89222171585988458E-04  1.91602293501696443E-04  1.94012353665581791E-04
  1.96452728654448772E-04  1.98923799781854180E-04  2.01425953157689146E-04
  2.03959579748509267E-04  2.06525075438623873E-04  2.09122841091954502E-04
  2.11753282614669477E-04  2.14416811018608406E-04  2.17113842485503351E-04
  2.19844798432008027E-04  2.22610105575545605E-04  2.25410196000983156E-04
  2.28245507228146469E-04  2.31116482280183252E-04  2.34023569752786270E-04
  2.36967223884287990E-04  2.39947904626635223E-04  2.42966077717258143E-04
  2.46022214751842703E-04  2.49116793258018156E-04  2.52250296769972399E-04
  2.55423214904004162E-04  2.58636043435027298E-04  2.61889284374036213E-04
  2.65183446046546268E-04  2.68519043172021237E-04  2.71896596944298070E-04
  2.75316635113025381E-04  2.78779692066125106E-04  2.82286308913291622E-04
  2.85837033570542065E-04  2.89432420845827862E-04  2.93073032525725688E-04
  2.96759437463217353E-04  3.00492211666574373E-04  3.04271938389360196E-04
  3.08099208221565741E-04  3.11974619181888560E-04  3.15898776811175880E-04
  3.19872294267040981E-04  3.23895792419670288E-04  3.27969899948836539E-04
  3.32095253442129721E-04  3.36272497494426279E-04  3.40502284808608081E-04
  3.44785276297548222E-04  3.49122141187381226E-04  3.53513557122069251E-04
  3.57960210269286569E-04  3.62462795427634160E-04  3.67022016135203251E-04
  3.71638584779505887E-04  3.76313222708784926E-04  3.81046660344727369E-04
  3.85839637296594203E-04  3.90692902476785081E-04  3.95607214217859186E-04
  4.00583340391023944E-04  4.05622058526117939E-04  4.10724155933101182E-04
  4.15890429825073351E-04  4.21121687442841688E-04  4.26418746181051703E-04
  4.31782433715908261E-04  4.37213588134501051E-04  4.42713058065757404E-04
  4.48281702813043683E-04  4.53920392488430717E-04  4.59630008148652260E-04
  4.65411441932771512E-04  4.71265597201579321E-04  4.77193388678747604E-04
  4.83195742593754403E-04  4.89273596826610840E-04  4.95427901054406434E-04
  5.01659616899697127E-04  5.07969718080763188E-04  5.14359190563751885E-04
  5.20829032716738061E-04  5.27380255465721096E-04  5.34013882452583728E-04
  5.40730950195039630E-04  5.47532508248589254E-04  5.54419619370516144E-04
  5.61393359685945291E-04  5.68454818855988471E-04  5.75605100248008763E-04
  5.82845321108020403E-04  5.90176612735263226E-04  5.97600120658969575E-04
  6.05117004817355242E-04  6.12728439738864238E-04  6.20435614725688232E-04
  6.28239734039599124E-04  6.36142017090117321E-04  6.44143698625046284E-04
  6.52246028923406519E-04  6.60450273990790919E-04  6.68757715757182982E-04
  6.77169652277260126E-04  6.85687397933217339E-04  6.94312283640144130E-04
  7.03045657053979057E-04  7.11888882782086077E-04  7.20843342596476995E-04
  7.29910435649715151E-04  7.39091578693538607E-04  7.48388206300226364E-04
  7.57801771086756191E-04  7.67333743941778007E-04  7.76985614255442628E-04
  7.86758890152124894E-04  7.96655098726066773E-04  8.06675786279992041E-04
  8.16822518566718246E-04  8.27096881033808013E-04  8.37500479071301754E-04
  8.48034938262558365E-04  8.58701904638258960E-04  8.69503044933601964E-04
  8.80440046848732704E-04  8.91514619312453469E-04  9.02728492749242445E-04
  9.14083419349638886E-04  9.25581173344025847E-04  9.37223551279856449E-04
  9.49012372302371603E-04  9.60949478438839549E-04  9.73036734886380630E-04
  9.85276030303406259E-04  9.97669277104725524E-04  1.01021841176036713E-03
  1.02292539509815173E-03  1.03579221261007842E-03  1.04882087476256079E-03
  1.06201341731056663E-03  1.07537190161571144E-03  1.08889841496834466E-03
  1.10259507091369771E-03  1.11646400958212823E-03  1.13050739802351865E-03
  1.14472743054588617E-03  1.15912632905824280E-03  1.17370634341777561E-03
  1.18846975178139099E-03  1.20341886096168318E-03  1.21855600678737468E-03
  1.23388355446829882E-03  1.24940389896496438E-03  1.26511946536277445E-03
  1.28103270925095363E-03  1.29714611710623389E-03  1.31346220668137692E-03
  1.32998352739857346E-03  1.34671266074779818E-03  1.36365222069017330E-03
  1.38080485406640269E-03  1.39817324101035008E-03  1.41576009536781072E-03
  1.43356816512055815E-03  1.45160023281572345E-03  1.46985911600056919E-03
  1.48834766766274247E-03  1.50706877667605471E-03  1.52602536825187721E-03
  1.54522040439621241E-03  1.56465688437250924E-03  1.58433784517030907E-03
  1.60426636197977712E-03  1.62444554867220920E-03  1.64487855828658212E-03
  1.66556858352221782E-03  1.68651885723765534E-03  1.70773265295578558E-03
  1.72921328537534863E-03  1.75096411088886388E-03  1.77298852810706879E-03
  1.79528997838996457E-03  1.81787194638452975E-03  1.84073796056920562E-03
  1.86389159380523188E-03  1.88733646389490630E-03  1.91107623414688097E-03
  1.93511461394855577E-03  1.95945535934568052E-03  1.98410227362924704E-03
  2.00905920792975425E-03  2.03433006181896444E-03  2.05991878391921035E-03
  2.08582937252037998E-03  2.11206587620465982E-03  2.13863239447912700E-03
  2.16553307841631411E-03  2.19277213130281493E-03  2.22035380929606029E-03
  2.24828242208935424E-03  2.27656233358526465E-03  2.30519796257750093E-03
  2.33419378344135132E-03  2.36355432683281767E-03  2.39328418039654132E-03
  2.42338798948262555E-03  2.45387045787248854E-03  2.48473634851383235E-03
  2.51599048426486569E-03  2.54763774864788907E-03  2.57968308661234678E-03
  2.61213150530749481E-03  2.64498807486476979E-03  2.67825792919001169E-03
  2.71194626676564843E-03  2.74605835146296377E-03  2.78059951336459511E-03
  2.81557514959736386E-03  2.85099072517558784E-03  2.88685177385500759E-03
  2.92316389899743628E-03  2.95993277444630805E-03  2.99716414541321714E-03
  3.03486382937562336E-03  3.07303771698584898E-03  3.11169177299149653E-03
  3.15083203716746106E-03  3.19046462525965097E-03  3.23059572994058688E-03
  3.27123162177702558E-03  3.31237865020973929E-03  3.35404324454563344E-03
  3.39623191496234329E-03  3.43895125352545192E-03  3.48220793521852650E-03
  3.52600871898608569E-03  3.57036044878970577E-03  3.61527005467740525E-03
  3.66074455386647055E-03  3.70679105183992176E-03  3.75341674345674829E-03
  3.80062891407612329E-03  3.84843494069576474E-03  3.89684229310458940E-03
  3.94585853504990022E-03  3.99549132541922487E-03  4.04574841943703464E-03
  4.09663766987652250E-03  4.14816702828659997E-03  4.20034454623436151E-03
  4.25317837656313900E-03  4.30667677466641148E-03  4.36084809977772912E-03
  4.41570081627684977E-03  4.47124349501232862E-03  4.52748481464071862E-03
  4.58443356298263334E-03  4.64209863839586904E-03  4.70048905116577515E-03
  4.75961392491314715E-03  4.81948249801979634E-03  4.88010412507207305E-03
  4.94148827832254292E-03  5.00364454917003390E-03  5.06658264965832977E-03
  5.13031241399367673E-03  5.19484380008141018E-03  5.26018689108190014E-03
  5.32635189698605228E-03  5.39334915621065853E-03  5.46118913721377677E-03
  5.52988244013045711E-03  5.59943979842904456E-03  5.66987208058828199E-03
  5.74119029179555838E-03  5.81340557566647088E-03  5.88652921598604301E-03
  5.96057263847185343E-03  6.03554741255930144E-03  6.11146525320938050E-03
  6.18833802273914633E-03  6.26617773267523423E-03  6.34499654563069285E-03
  6.42480677720539978E-03  6.50562089791041805E-03  6.58745153511652425E-03
  6.67031147502726313E-03  6.75421366467683203E-03  6.83917121395305819E-03
  6.92519739764586948E-03  7.01230565752148684E-03  7.10050960442273546E-03
  7.18982302039577678E-03  7.28025986084356036E-03  7.37183425670640772E-03
  7.46456051666997966E-03  7.55845312940104340E-03  7.65352676581137169E-03
  7.74979628135007668E-03  7.84727671832482869E-03  7.94598330825222778E-03
  8.04593147423776460E-03  8.14713683338573122E-03  8.24961519923938895E-03
  8.35338258425190328E-03  8.45845520228829563E-03  8.56484947115890467E-03
  8.67258201518470578E-03  8.78166966779488425E-03  8.89212947415710109E-03
  9.00397869384083130E-03  9.11723480351421360E-03  9.23191549967480353E-03
  9.34803870141469317E-03  9.46562255322041211E-03  9.58468542780803109E-03
  9.70524592899393856E-03  9.82732289460172895E-03  9.95093539940564327E-03
  1.00761027581110496E-02  1.02028445283724022E-02  1.03311805138491600E-02
  1.04611307673001599E-02  1.05927155937168838E-02  1.07259555534961731E-02
  1.08608714656528230E-02  1.09974844110725979E-02  1.11358157358061559E-02
  1.12758870544044272E-02  1.14177202532959182E-02  1.15613374942065208E-02
  1.17067612176223190E-02  1.18540141462959575E-02  1.20031192887971351E-02
  1.21540999431077237E-02  1.23069797002621304E-02  1.24617824480334517E-02
  1.26185323746659667E-02  1.27772539726546293E-02  1.29379720425720421E-02
  1.31007116969436167E-02  1.32654983641714470E-02  1.34323577925075412E-02
  1.36013160540770593E-02  1.37723995489521193E-02  1.39456350092768671E-02
  1.41210495034444338E-02  1.42986704403264067E-02  1.44785255735555545E-02
  1.46606430058623567E-02  1.48450511934661369E-02  1.50317789505213899E-02
  1.52208554536200497E-02  1.54123102463504091E-02  1.56061732439133505E-02
  1.58024747377966575E-02  1.60012454005081343E-02  1.62025162903682261E-02
  1.64063188563629593E-02  1.66126849430579156E-02  1.68216467955739947E-02
  1.70332370646257940E-02  1.72474888116233259E-02  1.74644355138379621E-02
  1.76841110696333084E-02  1.79065498037618842E-02  1.81317864727284644E-02
  1.83598562702208083E-02  1.85907948326087917E-02  1.88246382445126370E-02
  1.90614230444412086E-02  1.93011862305012480E-02  1.95439652661783675E-02
  1.97897980861908331E-02  2.00387231024169200E-02  2.02907792098968622E-02
  2.05460057929102644E-02  2.08044427311299789E-02  2.10661304058533984E-02
  2.13311097063121104E-02  2.15994220360609113E-02  2.18711093194472184E-02
  2.21462140081618020E-02  2.24247790878719828E-02  2.27068480849382109E-02
  2.29924650732151528E-02  2.32816746809383184E-02  2.35745220976973160E-02
  2.38710530814968160E-02  2.41713139659063339E-02  2.44753516672999438E-02
  2.47832136921870630E-02  2.50949481446354240E-02  2.54106037337874513E-02
  2.57302297814711624E-02  2.60538762299067847E-02  2.63815936495103501E-02
  2.67134332467954261E-02  2.70494468723742124E-02  2.73896870290593376E-02
  2.77342068800675023E-02  2.80830602573263616E-02  2.84363016698858558E-02
  2.87939863124353733E-02  2.91561700739280324E-02  2.95229095463134285E-02
  2.98942620333802651E-02  3.02702855597101646E-02  3.06510388797441441E-02
  3.10365814869631058E-02  3.14269736231838209E-02  3.18222762879718374E-02
  3.22225512481727691E-02  3.26278610475635097E-02  3.30382690166248424E-02
  3.34538392824368994E-02  3.38746367786992089E-02  3.43007272558766632E-02
  3.47321772914732235E-02  3.51690543004347447E-02  3.56114265456827020E-02
  3.60593631487804295E-02  3.65129341007335018E-02  3.69722102729259511E-02
  3.74372634281941036E-02  3.79081662320396029E-02  3.83849922639836263E-02
  3.88678160290637717E-02  3.93567129694756407E-02  3.98517594763608471E-02
  4.03530329017432673E-02  4.08606115706154696E-02  4.13745747931771393E-02
  4.18950028772274718E-02  4.24219771407134127E-02  4.29555799244357786E-02
  4.34958946049151390E-02  4.40430056074196039E-02  4.45969984191564237E-02
  4.51579596026295271E-02  4.57259768091651322E-02  4.63011387926073881E-02
  4.68835354231863788E-02  4.74732577015605506E-02  4.80703977730356780E-02
  4.86750489419628257E-02  4.92873056863173051E-02  4.99072636724610871E-02
  5.05350197700907972E-02  5.11706720673738846E-02  5.18143198862750440E-02
  5.24660637980754810E-02  5.31260056390874050E-02  5.37942485265661338E-02
  5.44708968748223860E-02  5.51560564115372368E-02  5.58498341942822510E-02
  5.65523386272474976E-02  5.72636794781798755E-02  5.79839678955345744E-02
  5.87133164258422588E-02  5.94518390312946468E-02  6.01996511075513843E-02
  6.09568695017708162E-02  6.17236125308676109E-02  6.25000000000000278E-02
  6.32861532212896788E-02  6.40821950327768314E-02  6.48882498176140965E-02
  6.57044435235015351E-02  6.65309036823662353E-02  6.73677594302894978E-02
  6.82151415276845141E-02  6.90731823797280098E-02  6.99420160570488059E-02
  7.08217783166766729E-02  7.17126066232545434E-02  7.26146401705177191E-02
  7.35280199030431819E-02  7.44528885382724076E-02  7.53893905888113197E-02
  7.63376723850106437E-02  7.72978820978303255E-02  7.82701697619915537E-02
  7.92546872994199930E-02  8.02515885429838788E-02  8.12610292605307205E-02
  8.22831671792263880E-02  8.33181620102002030E-02  8.43661754735002267E-02
  8.54273713233623111E-02  8.65019153737969920E-02  8.75899755244983619E-02
  8.86917217870786118E-02  8.98073263116328097E-02  9.09369634136376198E-02
  9.20808096011885013E-02  9.32390436025794384E-02  9.44118463942295733E-02
  9.55994012289612116E-02  9.68018936646333622E-02  9.80195115931355859E-02
  9.92524452697464976E-02  1.00500887342861472E-01  1.01765032884094414E-01
  1.03045079418758054E-01  1.04341226956727720E-01  1.05653678023693257E-01
  1.06982637692804070E-01  1.08328313616712246E-01  1.09690916060018712E-01
  1.11070657932127448E-01  1.12467754820513091E-01  1.13882425024406861E-01
  1.15314889588906289E-01  1.16765372339513951E-01  1.18234099917110647E-01
  1.19721301813368555E-01  1.21227210406609678E-01  1.22752060998115489E-01
  1.24296091848893300E-01  1.25859544216904845E-01  1.27442662394763512E-01
  1.29045693747905449E-01  1.30668888753241036E-01  1.32312501038292230E-01
  1.33976787420822502E-01  1.35662007948965213E-01  1.37368425941856415E-01
  1.39096308030779298E-01  1.40845924200825590E-01  1.42617547833081532E-01
  1.44411455747344070E-01  1.46227928245374506E-01  1.48067249154696295E-01
  1.49929705872943686E-01  1.51815589412768071E-01  1.53725194447309421E-01
  1.55658819356239486E-01  1.57616766272384329E-01  1.59599341128933009E-01
  1.61606853707240455E-01  1.63639617685231387E-01  1.65697950686412993E-01
  1.67782174329504458E-01  1.69892614278690401E-01  1.72029600294506591E-01
  1.74193466285365722E-01  1.76384550359731357E-01  1.78603194878947824E-01
  1.80849746510735127E-01  1.83124556283356416E-01  1.85427979640466783E-01
  1.87760376496652170E-01  1.90122111293666574E-01  1.92513553057377051E-01
  1.94935075455424600E-01  1.97387056855610560E-01  1.99869880385017323E-01
  2.02383933989872644E-01  2.04929610496167203E-01  2.07507307671034313E-01
  2.10117428284901903E-01  2.12760380174426306E-01  2.15436576306217265E-01
  2.18146434841365172E-01  2.20890379200779446E-01  2.23668838131348774E-01
  2.26482245772933993E-01  2.29331041726202889E-01  2.32215671121319106E-01
  2.35136584687494488E-01  2.38094238823416404E-01  2.41089095668561015E-01
  2.44121623175403368E-01  2.47192295182536187E-01  2.50301591488707897E-01
  2.53449997927792270E-01  2.56638006444700917E-01  2.59866115172250611E-01
  2.63134828508997665E-01  2.66444657198051216E-01  2.69796118406877894E-01
  2.73189735808110012E-01  2.76626039661371004E-01  2.80105566896129199E-01
  2.83628861195594051E-01  2.87196473081668180E-01  2.90808960000967065E-01
  2.94466886411921480E-01  2.98170823872975332E-01  3.01921351131892557E-01
  3.05719054216187947E-01  3.09564526524694850E-01  3.13458368920285113E-01
  3.17401189823755203E-01  3.21393605308892993E-01  3.25436239198740707E-01
  3.29529723163068389E-01  3.33674696817073679E-01  3.37871807821323089E-01
  3.42121711982950105E-01  3.46425073358126612E-01  3.50782564355822502E-01
  3.55194865842871632E-01  3.59662667250358337E-01  3.64186666681342253E-01
  3.68767571019938734E-01  3.73406096041770441E-01  3.78102966525809325E-01
  3.82858916367624313E-01  3.87674688694054248E-01  3.92551035979322949E-01
  3.97488720162614717E-01  4.02488512767128881E-01  4.07551195020632195E-01
  4.12677557977526865E-01  4.17868402642454562E-01  4.23124540095454971E-01
  4.28446791618698863E-01  4.33835988824814889E-01  4.39292973786831020E-01
  4.44818599169749918E-01  4.50413728363779464E-01  4.56079235619239687E-01
  4.61816006183165817E-01  4.67624936437630201E-01  4.73506934039803040E-01
  4.79462918063777110E-01  4.85493819144173611E-01  4.91600579621555955E-01
  4.97784153689673547E-01  5.04045507544554683E-01  5.10385619535478452E-01
  5.16805480317842125E-01  5.23306093007954276E-01  5.29888473339773625E-01
  5.36553649823618528E-01  5.43302663906875538E-01  5.50136570136725789E-01
  5.57056436324921300E-01  5.64063343714632959E-01  5.71158387149395486E-01
  5.78342675244181148E-01  5.85617330558620974E-01  5.92983489772408112E-01
  6.00442303862906757E-01  6.07994938284992958E-01  6.15642573153161843E-01
  6.23386403425920443E-01  6.31227639092503567E-01  6.39167505361937782E-01
  6.47207242854480946E-01  6.55348107795473700E-01  6.63591372211625674E-01
  6.71938324129772502E-01  6.80390267778134050E-01  6.88948523790100298E-01
  6.97614429410585823E-01  7.06389338704974334E-01  7.15274622770695423E-01
  7.24271669951462305E-01  7.33381886054200849E-01  7.42606694568712866E-01
  7.51947536890096191E-01  7.61405872543967410E-01  7.70983179414516329E-01
  7.80680953975425806E-01  7.90500711523702049E-01  8.00443986416440101E-01
  8.10512332310571293E-01  8.20707322405626494E-01  8.31030549689549258E-01
  8.41483627187606054E-01  8.52068188214422761E-01  8.62785886629193866E-01
  8.73638397094102515E-01  8.84627415335987988E-01  8.95754658411308524E-01
  9.07021864974432823E-01  9.18430795549309287E-01  9.29983232804552751E-01
  9.41680981831987007E-01  9.53525870428697853E-01  9.65519749382626635E-01
  9.77664492761761150E-01  9.89961998206964067E-01  1.00241418722847975E+00
  1.01502300550617774E+00  1.02779042319356639E+00  1.04071843522563445E+00
  1.05380906163056509E+00  1.06706434784536630E+00  1.08048636503547812E+00
  1.09407721041839312E+00  1.10783900759135312E+00  1.12177390686316558E+00
  1.13588408559019172E+00  1.15017174851656589E+00  1.16463912811868853E+00
  1.17928848495405569E+00  1.19412210801447860E+00  1.20914231508373859E+00
  1.22435145309975013E+00  1.23975189852127077E+00  1.25534605769922969E+00
  1.27113636725272627E+00  1.28712529444975221E+00  1.30331533759271356E+00
  1.31970902640878918E+00  1.33630892244520960E+00  1.35311761946950426E+00
  1.37013774387477949E+00  1.38737195509010292E+00  1.40482294599603907E+00
  1.42249344334542105E+00  1.44038620818941188E+00  1.45850403630892012E+00
  1.47684975865145174E+00  1.49542624177344696E+00  1.51423638828818685E+00
  1.53328313731933519E+00  1.55256946496017800E+00  1.57209838473864849E+00
  1.59187294808819346E+00  1.61189624482456706E+00  1.63217140362862367E+00
  1.65270159253517512E+00  1.67349001942800846E+00  1.69453993254111923E+00
  1.71585462096625707E+00  1.73743741516685501E+00  1.75929168749841591E+00
  1.78142085273545581E+00  1.80382836860506468E+00  1.82651773632718450E+00
  1.84949250116168562E+00  1.87275625296231407E+00  1.89631262673762091E+00
  1.92016530321893342E+00  1.94431800943547972E+00  1.96877451929674696E+00
  1.99353865418215714E+00  2.01861428353816841E+00  2.04400532548288583E+00
  2.06971574741827036E+00  2.09574956665005940E+00  2.12211085101547292E+00
  2.14880371951882498E+00  2.17583234297512806E+00  2.20320094466178507E+00
  2.23091380097849346E+00  2.25897524211543432E+00  2.28738965272987560E+00
  2.31616147263128713E+00  2.34529519747506354E+00  2.37479537946498631E+00
  2.40466662806450948E+00  2.43491361071699908E+00  2.46554105357503461E+00
  2.49655374223887216E+00  2.52795652250421332E+00  2.55975430111936397E+00
  2.59195204655192324E+00  2.62455478976512557E+00  2.65756762500392529E+00
  2.69099571059099629E+00  2.72484426973272065E+00  2.75911859133532822E+00
  2.79382403083130360E+00  2.82896601101617406E+00  2.86455002289584337E+00
  2.90058162654456231E+00  2.93706645197370664E+00  2.97401020001148142E+00
  3.01141864319367736E+00  3.04929762666565241E+00  3.08765306909563852E+00
  3.12649096359954815E+00  3.16581737867741664E+00  3.20563845916160783E+00
  3.24596042717696687E+00  3.28678958311302960E+00  3.32813230660847781E+00
  3.36999505754797291E+00  3.41238437707151787E+00  3.45530688859652724E+00
  3.49876929885275967E+00  3.54277839893023883E+00  3.58734106534038988E+00
  3.63246426109050224E+00  3.67815503677171307E+00  3.72442053166068687E+00
  3.77126797483512499E+00  3.81870468630333582E+00  3.86673807814799630E+00
  3.91537565568430379E+00  3.96462501863270900E+00  4.01449386230636840E+00
  4.06498997881356328E+00  4.11612125827523467E+00  4.16789569005782568E+00
  4.22032136402163438E+00  4.27340647178488453E+00  4.32715930800366522E+00
  4.38158827166799458E+00  4.43670186741418338E+00  4.49250870685369197E+00
  4.54901750991872955E+00  4.60623710622474025E+00  4.66417643645006130E+00
  4.72284455373291756E+00  4.78225062508599308E+00  4.84240393282880621E+00
  4.90331387603807212E+00  4.96498997201633774E+00  5.02744185777908204E+00
  5.09067929156050880E+00  5.15471215433831453E+00  5.21955045137757967E+00
  5.28520431379412958E+00  5.35168400013754120E+00  5.41899989799405635E+00
  5.48716252560967810E+00  5.55618253353364544E+00  5.62607070628261852E+00
  5.69683796402577780E+00  5.76849536429111787E+00  5.84105410369322886E+00
  5.91452551968275930E+00  5.98892109231793501E+00  6.06425244605834024E+00
  6.14053135158125407E+00  6.21776972762086633E+00  6.29597964283057010E+00
  6.37517331766873596E+00  6.45536312630817832E+00  6.53656159856963903E+00
  6.61878142187962037E+00  6.70203544325278511E+00  6.78633667129935603E+00
  6.87169827825772561E+00  6.95813360205264697E+00  7.04565614837932674E+00
  7.13427959281368995E+00  7.22401778294923513E+00  7.31488474056074445E+00
  7.40689466379520844E+00  7.50006192939034122E+00  7.59440109492093551E+00
  7.68992690107354004E+00  7.78665427394971577E+00  7.88459832739826094E+00
  7.98377436537680740E+00  8.08419788434306064E+00  8.18588457567616956E+00
  8.28885032812854128E+00  8.39311123030847028E+00  8.49868357319406087E+00
  8.60558385267867010E+00  8.71382877214845664E+00  8.82343524509231258E+00
  8.93442039774462593E+00  9.04680157176131239E+00  9.16059632692944881E+00
  9.27582244391104638E+00  9.39249792702131181E+00  9.51064100704185122E+00
  9.63027014406929815E+00  9.75140403039969428E+00  9.87406159344922507E+00
  9.99826199871166743E+00  1.01240246527530218E+01  1.02513692062438651E+01
  1.03803155570297569E+01  1.05108838532403492E+01  1.06430944964375716E+01
  1.07769681448033960E+01  1.09125257163677691E+01  1.10497883922770281E+01
  1.11887776201035525E+01  1.13295151171969604E+01  1.14720228740774992E+01
  1.16163231578721344E+01  1.17624385157937805E+01  1.19103917786643851E+01
  1.20602060644822870E+01  1.22119047820344342E+01  1.23655116345540979E+01
  1.25210506234244896E+01  1.26785460519290663E+01  1.28380225290489598E+01
  1.29995049733081647E+01  1.31630186166671592E+01  1.33285890084653786E+01
  1.34962420194133941E+01  1.36660038456352613E+01  1.38379010127616979E+01
  1.40119603800748180E+01  1.41882091447048815E+01  1.43666748458799400E+01
  1.45473853692288930E+01  1.47303689511386633E+01  1.49156541831662288E+01
                               </PP_R> 
 <PP_RAB type="real" size="   999" columns="3">
  7.12407785589465815E-07  7.21368772397673709E-07  7.30442474544204847E-07
  7.39630309813479665E-07  7.48933713823453078E-07  7.58354140249928818E-07
  7.67893061053702116E-07  7.77551966710555726E-07  7.87332366444148876E-07
  7.97235788461839610E-07  8.07263780193466445E-07  8.17417908533139535E-07
  8.27699760084070465E-07  8.38110941406481957E-07  8.48653079268639005E-07
  8.59327820901029907E-07  8.70136834253752580E-07  8.81081808257134632E-07
  8.92164453085630924E-07  9.03386500425045210E-07  9.14749703743105065E-07
  9.26255838563447614E-07  9.37906702743047596E-07  9.49704116753136476E-07
  9.61649923963657073E-07  9.73745990931288644E-07  9.85994207691105211E-07
  9.98396488051894121E-07  1.01095476989519384E-06  1.02367101547809381E-06
  1.03654721173983711E-06  1.04958537061228661E-06  1.06278752933429213E-06
  1.07615575077001347E-06  1.08969212373124909E-06  1.10339876330381373E-06
  1.11727781117802701E-06  1.13133143598335599E-06  1.14556183362726816E-06
  1.15997122763834926E-06  1.17456186951372845E-06  1.18933603907088412E-06
  1.20429604480386741E-06  1.21944422424400969E-06  1.23478294432516958E-06
  1.25031460175356587E-06  1.26604162338227098E-06  1.28196646659041106E-06
  1.29809161966713596E-06  1.31441960220042284E-06  1.33095296547076101E-06
  1.34769429284979880E-06  1.36464620020399975E-06  1.38181133630337553E-06
  1.39919238323536704E-06  1.41679205682391818E-06  1.43461310705383382E-06
  1.45265831850046971E-06  1.47093051076482618E-06  1.48943253891412236E-06
  1.50816729392789798E-06  1.52713770314974000E-06  1.54634673074468492E-06
  1.56579737816237444E-06  1.58549268460604237E-06  1.60543572750738991E-06
  1.62562962300744493E-06  1.64607752644346432E-06  1.66678263284195961E-06
  1.68774817741793337E-06  1.70897743608037915E-06  1.73047372594415382E-06
  1.75224040584828387E-06  1.77428087688078676E-06  1.79659858291010643E-06
  1.81919701112321401E-06  1.84207969257049462E-06  1.86525020271747941E-06
  1.88871216200351845E-06  1.91246923640748691E-06  1.93652513802059257E-06
  1.96088362562640536E-06  1.98554850528817074E-06  2.01052363094351552E-06
  2.03581290500663922E-06  2.06142027897806380E-06  2.08734975406207075E-06
  2.11360538179189609E-06  2.14019126466278796E-06  2.16711155677303823E-06
  2.19437046447305701E-06  2.22197224702263090E-06  2.24992121725644011E-06
  2.27822174225794350E-06  2.30687824404175550E-06  2.33589520024457854E-06
  2.36527714482485607E-06  2.39502866877120588E-06  2.42515442081977238E-06
  2.45565910818060982E-06  2.48654749727317751E-06  2.51782441447111433E-06
  2.54949474685636609E-06  2.58156344298279849E-06  2.61403551364943144E-06
  2.64691603268336855E-06  2.68021013773260516E-06  2.71392303106879197E-06
  2.74805998040010034E-06  2.78262631969432023E-06  2.81762745001228979E-06
  2.85306884035183111E-06  2.88895602850229090E-06  2.92529462190982863E-06
  2.96209029855360013E-06  2.99934880783294037E-06  3.03707597146572696E-06
  3.07527768439803387E-06  3.11395991572522720E-06  3.15312870962465524E-06
  3.19279018630005203E-06  3.23295054293784140E-06  3.27361605467545275E-06
  3.31479307558182861E-06  3.35648803965026581E-06  3.39870746180372587E-06
  3.44145793891281744E-06  3.48474615082656416E-06  3.52857886141614544E-06
  3.57296291963177582E-06  3.61790526057284853E-06  3.66341290657157144E-06
  3.70949296829021691E-06  3.75615264583218000E-06  3.80339922986700253E-06
  3.85124010276957227E-06  3.89968273977360734E-06  3.94873471013969851E-06
  3.99840367833801243E-06  4.04869740524587894E-06  4.09962374936045674E-06
  4.15119066802662202E-06  4.20340621868032899E-06  4.25627856010760152E-06
  4.30981595371935328E-06  4.36402676484226516E-06  4.41891946402586546E-06
  4.47450262836608245E-06  4.53078494284542751E-06  4.58777520169004098E-06
  4.64548230974382359E-06  4.70391528385981175E-06  4.76308325430909228E-06
  4.82299546620742788E-06  4.88366128095981419E-06  4.94509017772324050E-06
  5.00729175488779964E-06  5.07027573157647424E-06  5.13405194916376511E-06
  5.19863037281341689E-06  5.26402109303552126E-06  5.33023432726314680E-06
  5.39728042144885377E-06  5.46516985168126331E-06  5.53391322582196806E-06
  5.60352128516304604E-06  5.67400490610538447E-06  5.74537510185815393E-06
  5.81764302415964390E-06  5.89081996501974169E-06  5.96491735848434522E-06
  6.03994678242193004E-06  6.11591996033263550E-06  6.19284876318008110E-06
  6.27074521124621442E-06  6.34962147600953984E-06  6.42948988204689890E-06
  6.51036290895922593E-06  6.59225319332151370E-06  6.67517353065729711E-06
  6.75913687743799571E-06  6.84415635310736567E-06  6.93024524213145247E-06
  7.01741699607431630E-06  7.10568523569985622E-06  7.19506375310011004E-06
  7.28556651385025521E-06  7.37720765919079100E-06  7.47000150823711969E-06
  7.56396256021694086E-06  7.65910549673580365E-06  7.75544518407110323E-06
  7.85299667549498905E-06  7.95177521362646686E-06  8.05179623281307923E-06
  8.15307536154258115E-06  8.25562842488488683E-06  8.35947144696478761E-06
  8.46462065346575259E-06  8.57109247416521674E-06  8.67890354550180230E-06
  8.78807071317473923E-06  8.89861103477607596E-06  9.01054178245596346E-06
  9.12388044562143939E-06  9.23864473366923258E-06  9.35485257875282989E-06
  9.47252213858445272E-06  9.59167179927222610E-06  9.71232017819303319E-06
  9.83448612690156185E-06  9.95818873407583466E-06  1.00834473284999015E-05
  1.02102814820839781E-05  1.03387110129226005E-05  1.04687559883912729E-05
  1.06004367282819802E-05  1.07337738079782384E-05  1.08687880616700249E-05
  1.10055005856091588E-05  1.11439327414056697E-05  1.12841061593655312E-05
  1.14260427418704868E-05  1.15697646668003234E-05  1.17152943909982060E-05
  1.18626546537796461E-05  1.20118684804854957E-05  1.21629591860797586E-05
  1.23159503787925786E-05  1.24708659638090704E-05  1.26277301470045905E-05
  1.27865674387268969E-05  1.29474026576259816E-05  1.31102609345320108E-05
  1.32751677163820836E-05  1.34421487701963940E-05  1.36112301871043093E-05
  1.37824383864212224E-05  1.39558001197766042E-05  1.41313424752939845E-05
  1.43090928818235784E-05  1.44890791132280364E-05  1.46713292927221951E-05
  1.48558718972673883E-05  1.50427357620210411E-05  1.52319500848421835E-05
  1.54235444308537366E-05  1.56175487370620554E-05  1.58139933170346800E-05
  1.60129088656369204E-05  1.62143264638279229E-05  1.64182775835172115E-05
  1.66247940924821682E-05  1.68339082593474786E-05  1.70456527586271670E-05
  1.72600606758300329E-05  1.74771655126293781E-05  1.76970011920976360E-05
  1.79196020640069789E-05  1.81450029101965452E-05  1.83732389500071148E-05
  1.86043458457842823E-05  1.88383597084506866E-05  1.90753171031484671E-05
  1.93152550549526564E-05  1.95582110546563682E-05  1.98042230646288634E-05
  2.00533295247472168E-05  2.03055693584026177E-05  2.05609819785822765E-05
  2.08196072940277235E-05  2.10814857154706924E-05  2.13466581619473211E-05
  2.16151660671918606E-05  2.18870513861107992E-05  2.21623566013383619E-05
  2.24411247298745585E-05  2.27233993298066240E-05  2.30092245071150702E-05
  2.32986449225654005E-05  2.35917057986863295E-05  2.38884529268360128E-05
  2.41889326743569485E-05  2.44931919918210085E-05  2.48012784203655880E-05
  2.51132400991219281E-05  2.54291257727370568E-05  2.57489847989901294E-05
  2.60728671565047517E-05  2.64008234525582477E-05  2.67329049309890882E-05
  2.70691634802039270E-05  2.74096516412851872E-05  2.77544226162007549E-05
  2.81035302761169300E-05  2.84570291698158095E-05  2.88149745322187630E-05
  2.91774222930168922E-05  2.95444290854102222E-05  2.99160522549567665E-05
  3.02923498685328207E-05  3.06733807234061055E-05  3.10592043564229058E-05
  3.14498810533108238E-05  3.18454718580986121E-05  3.22460385826543335E-05
  3.26516438163436851E-05  3.30623509358096238E-05  3.34782241148751501E-05
  3.38993283345706068E-05  3.43257293932870485E-05  3.47574939170574402E-05
  3.51946893699670509E-05  3.56373840646948467E-05  3.60856471731875963E-05
  3.65395487374679576E-05  3.69991596805788547E-05  3.74645518176652169E-05
  3.79357978671952947E-05  3.84129714623231123E-05  3.88961471623937093E-05
  3.93854004645932660E-05  3.98808078157456426E-05  4.03824466242573400E-05
  4.08903952722128252E-05  4.14047331276217465E-05  4.19255405568204180E-05
  4.24528989370292925E-05  4.29868906690681531E-05  4.35275991902315826E-05
  4.40751089873260752E-05  4.46295056098713222E-05  4.51908756834675711E-05
  4.57593069233308873E-05  4.63348881479990274E-05  4.69177092932093564E-05
  4.75078614259515439E-05  4.81054367586970606E-05  4.87105286638073715E-05
  4.93232316881237528E-05  4.99436415677403123E-05  5.05718552429629370E-05
  5.12079708734565326E-05  5.18520878535824997E-05  5.25043068279295230E-05
  5.31647297070392402E-05  5.38334596833301489E-05  5.45106012472216180E-05
  5.51962602034606234E-05  5.58905436876541104E-05  5.65935601830089868E-05
  5.73054195372829195E-05  5.80262329799483657E-05  5.87561131395721920E-05
  5.94951740614143421E-05  6.02435312252474583E-05  6.10013015634009131E-05
  6.17686034790317838E-05  6.25455568646254210E-05  6.33322831207291275E-05
  6.41289051749209592E-05  6.49355475010176273E-05  6.57523361385237571E-05
  6.65793987123256616E-05  6.74168644526332343E-05  6.82648642151722124E-05
  6.91235305016307111E-05  6.99929974803630543E-05  7.08734010073535276E-05
  7.17648786474444879E-05  7.26675696958308887E-05  7.35816151998255430E-05
  7.45071579808981760E-05  7.54443426569912734E-05  7.63933156651172671E-05
  7.73542252842393345E-05  7.83272216584404333E-05  7.93124568203836607E-05
  8.03100847150675027E-05  8.13202612238802283E-05  8.23431441889565586E-05
  8.33788934378408000E-05  8.44276708084604113E-05  8.54896401744132300E-05
  8.65649674705733739E-05  8.76538207190185936E-05  8.87563700552842014E-05
  8.98727877549472206E-05  9.10032482605445099E-05  9.21479282088301073E-05
  9.33070064583747485E-05  9.44806641175130479E-05  9.56690845726421515E-05
  9.68724535168759667E-05  9.80909589790603640E-05  9.93247913531528472E-05
  1.00574143427972057E-04  1.01839210417321640E-04  1.03120189990492362E-04
  1.04417282303148794E-04  1.05730690028603706E-04  1.07060618389486314E-04
  1.08407275189808828E-04  1.09770870847436061E-04  1.11151618426963766E-04
  1.12549733673010402E-04  1.13965435043927678E-04  1.15398943745935047E-04
  1.16850483767683676E-04  1.18320281915255157E-04  1.19808567847600391E-04
  1.21315574112424240E-04  1.22841536182521612E-04  1.24386692492570541E-04
  1.25951284476388126E-04  1.27535556604655044E-04  1.29139756423114505E-04
  1.30764134591251999E-04  1.32408944921461047E-04  1.34074444418702174E-04
  1.35760893320660298E-04  1.37468555138407485E-04  1.39197696697576965E-04
  1.40948588180055340E-04  1.42721503166198978E-04  1.44516718677581527E-04
  1.46334515220278982E-04  1.48175176828699480E-04  1.50038991109964189E-04
  1.51926249288846546E-04  1.53837246253276652E-04  1.55772280600418157E-04
  1.57731654683324600E-04  1.59715674658182888E-04  1.61724650532150526E-04
  1.63758896211795219E-04  1.65818729552143093E-04  1.67904472406344265E-04
  1.70016450675963257E-04  1.72154994361901513E-04  1.74320437615960855E-04
  1.76513118793055439E-04  1.78733380504080106E-04  1.80981569669444437E-04
  1.83258037573279475E-04  1.85563139918326733E-04  1.87897236881517379E-04
  1.90260693170250621E-04  1.92653878079380135E-04  1.95077165548916904E-04
  1.97530934222458224E-04  2.00015567506351701E-04  2.02531453629602837E-04
  2.05078985704537013E-04  2.07658561788223955E-04  2.10270584944674950E-04
  2.12915463307822436E-04  2.15593610145291585E-04  2.18305443922974543E-04
  2.21051388370416361E-04  2.23831872547023558E-04  2.26647330909105822E-04
  2.29498203377760126E-04  2.32384935407609907E-04  2.35307978056407973E-04
  2.38267788055515118E-04  2.41264827881265616E-04  2.44299565827229594E-04
  2.47372476077385402E-04  2.50484038780211500E-04  2.53634740123710777E-04
  2.56825072411378294E-04  2.60055534139124725E-04  2.63326630073167501E-04
  2.66638871328901369E-04  2.69992775450761423E-04  2.73388866493090230E-04
  2.76827675102022514E-04  2.80309738598399796E-04  2.83835601061727648E-04
  2.87405813415189443E-04  2.91020933511728979E-04  2.94681526221216483E-04
  2.98388163518710199E-04  3.02141424573829185E-04  3.05941895841249330E-04
  3.09790171152338287E-04  3.13686851807942844E-04  3.17632546672343174E-04
  3.21627872268389573E-04  3.25673452873834852E-04  3.29769920618879408E-04
  3.33917915584942859E-04  3.38118085904677676E-04  3.42371087863241753E-04
  3.46677586000843812E-04  3.51038253216579563E-04  3.55453770873573240E-04
  3.59924828905442188E-04  3.64452125924100438E-04  3.69036369328917867E-04
  3.73678275417253358E-04  3.78378569496377101E-04  3.83137985996801812E-04
  3.87957268587038866E-04  3.92837170289797772E-04  3.97778453599647967E-04
  4.02781890602159625E-04  4.07848263094543915E-04  4.12978362707810552E-04
  4.18172991030461275E-04  4.23432959733740133E-04  4.28759090698458312E-04
  4.34152216143415327E-04  4.39613178755434331E-04  4.45142831821033807E-04
  4.50742039359755379E-04  4.56411676259168772E-04  4.62152628411574421E-04
  4.67965792852426327E-04  4.73852077900495058E-04  4.79812403299795340E-04
  4.85847700363297168E-04  4.91958912118445574E-04  4.98146993454510589E-04
  5.04412911271790864E-04  5.10757644632693392E-04  5.17182184914714220E-04
  5.23687535965343398E-04  5.30274714258917703E-04  5.36944749055447254E-04
  5.43698682561439238E-04  5.50537570092745070E-04  5.57462480239455296E-04
  5.64474495032869111E-04  5.71574710114564196E-04  5.78764234907592351E-04
  5.86044192789829757E-04  5.93415721269506926E-04  6.00879972162945974E-04
  6.08438111774535365E-04  6.16091321078966400E-04  6.23840795905763676E-04
  6.31687747126134964E-04  6.39633400842173601E-04  6.47678998578438093E-04
  6.55825797475943534E-04  6.64075070488592584E-04  6.72428106582076694E-04
  6.80886210935279890E-04  6.89450705144215460E-04  6.98122927428528202E-04
  7.06904232840593763E-04  7.15795993477248466E-04  7.24799598694182267E-04
  7.33916455323028235E-04  7.43147987891183128E-04  7.52495638844392369E-04
  7.61960868772135289E-04  7.71545156635845136E-04  7.81250000000000369E-04
  7.91076915266121072E-04  8.01027437909710392E-04  8.11103122720176228E-04
  8.21305544043769275E-04  8.31636296029577985E-04  8.42096992878618809E-04
  8.52689269096056426E-04  8.63414779746600144E-04  8.74275200713110073E-04
  8.85272228958458411E-04  8.96407582790681814E-04  9.07683002131471489E-04
  9.19100248788039817E-04  9.30661106728405138E-04  9.42367382360141540E-04
  9.54220904812633111E-04  9.66223526222879069E-04  9.78377122024894422E-04
  9.90683591242749869E-04  1.00314485678729853E-03  1.01576286575663405E-03
  1.02853958974032989E-03  1.04147702512750258E-03  1.05457719341875292E-03
  1.06784214154202902E-03  1.08127394217246244E-03  1.09487469405622961E-03
  1.10864652233848260E-03  1.12259157889541016E-03  1.13671204267047025E-03
  1.15101012001485640E-03  1.16548804503224302E-03  1.18014807992786967E-03
  1.19499251536201519E-03  1.21002367080791720E-03  1.22524389491419482E-03
  1.24065556587183139E-03  1.25626109178576849E-03  1.27206291105118026E-03
  1.28806349273447572E-03  1.30426533695909667E-03  1.32067097529616579E-03
  1.33728297116005100E-03  1.35410392020890316E-03  1.37113645075023403E-03
  1.38838322415159310E-03  1.40584693525641364E-03  1.42353031280508576E-03
  1.44143611986132869E-03  1.45956715424392443E-03  1.47792624896388321E-03
  1.49651627266710703E-03  1.51534013008262111E-03  1.53440076247644375E-03
  1.55370114811116634E-03  1.57324430271131056E-03  1.59303327993454407E-03
  1.61307117184881815E-03  1.63336110941551295E-03  1.65390626297865287E-03
  1.67470984276028140E-03  1.69577509936206529E-03  1.71710532427320531E-03
  1.73870385038474122E-03  1.76057405251031987E-03  1.78271934791351928E-03
  1.80514319684180104E-03  1.82784910306718141E-03  1.85084061443370387E-03
  1.87412132341179612E-03  1.89769486765960097E-03  1.92156493059136781E-03
  1.94573524195299375E-03  1.97020957840480420E-03  1.99499176411166261E-03
  2.02008567134050578E-03  2.04549522106539259E-03  2.07122438358016241E-03
  2.09727717911880598E-03  2.12365767848363010E-03  2.15037000368133255E-03
  2.17741832856707153E-03  2.20480687949664187E-03  2.23253993598684789E-03
  2.26062183138418934E-03  2.28905695354195528E-03  2.31784974550583488E-03
  2.34700470620815248E-03  2.37652639117083217E-03  2.40641941321721340E-03
  2.43668844319280776E-03  2.46733821069513226E-03  2.49837350481271672E-03
  2.52979917487340840E-03  2.56162013120209012E-03  2.59384134588792892E-03
  2.62646785356127413E-03  2.65950475218032891E-03  2.69295720382771615E-03
  2.72683043551706465E-03  2.76112974000974334E-03  2.79586047664185993E-03
  2.83102807216167526E-03  2.86663802157753611E-03  2.90269588901648917E-03
  2.93920730859368109E-03  2.97617798529270505E-03  3.01361369585701269E-03
  3.05152028969254236E-03  3.08990368978170242E-03  3.12876989360884880E-03
  3.16812497409740346E-03  3.20797508055876155E-03  3.24832643965313264E-03
  3.28918535636247081E-03  3.33055821497564054E-03  3.37245148008597385E-03
  3.41487169760137542E-03  3.45782549576713772E-03  3.50131958620161516E-03
  3.54536076494492598E-03  3.58995591352085242E-03  3.63511200001208866E-03
  3.68083608014901876E-03  3.72713529841219200E-03  3.77401688914865731E-03
  3.82148817770234942E-03  3.86955658155868588E-03  3.91822961150356443E-03
  3.96751487279693987E-03  4.01742006636116294E-03  4.06795298998425918E-03
  4.11912153953835486E-03  4.17093371021342099E-03  4.22339759776653879E-03
  4.27652139978687649E-03  4.33031341697658317E-03  4.38478205444778162E-03
  4.43993582303589540E-03  4.49578334062947921E-03  4.55233333351677798E-03
  4.60959463774923434E-03  4.66757620052213069E-03  4.72628708157261674E-03
  4.78573645459530461E-03  4.84593360867567862E-03  4.90688794974153755E-03
  4.96860900203268448E-03  5.03110640958911136E-03  5.09438993775790296E-03
  5.15846947471908582E-03  5.22335503303068219E-03  5.28905675119318783E-03
  5.35558489523373614E-03  5.42294986031018663E-03  5.49116217233538810E-03
  5.56023248962187432E-03  5.63017160454724365E-03  5.70099044524049678E-03
  5.77270007728957271E-03  5.84531170547037803E-03  5.91883667549753835E-03
  5.99328647579721457E-03  6.06867273930217048E-03  6.14500724526944979E-03
  6.22230192112091952E-03  6.30056884430693371E-03  6.37982024419348100E-03
  6.46006850397302674E-03  6.54132616259942880E-03  6.62360591674717065E-03
  6.70692062279523195E-03  6.79128329883594423E-03  6.87670712670907305E-03
  6.96320545406151677E-03  7.05079179643291250E-03  7.13947983936744426E-03
  7.22928344055226435E-03  7.32021663198276218E-03  7.41229362215510210E-03
  7.50552879828633463E-03  7.59993672856241250E-03  7.69553216441452338E-03
  7.79233004282400572E-03  7.89034548865629425E-03  7.98959381702422228E-03
  8.09009053568101287E-03  8.19185134744342125E-03  8.29489215264532162E-03
  8.39922905162215731E-03  8.50487834722667667E-03  8.61185654737625476E-03
  8.72018036763232314E-03  8.82986673381217987E-03  8.94093278463369348E-03
  9.05339587439327881E-03  9.16727357567751096E-03  9.28258368210891152E-03
  9.39934421112620377E-03  9.51757340679959367E-03  9.63728974268145480E-03
  9.75851192469282328E-03  9.88125889404627665E-03  1.00055498302055023E-02
  1.01314041538821415E-02  1.02588415300703326E-02  1.03878818711193657E-02
  1.05185453398450764E-02  1.06508523526802849E-02  1.07848235828649237E-02
  1.09204799636762814E-02  1.10578426916998502E-02  1.11969332301413566E-02
  1.13377733121804106E-02  1.14803849443663661E-02  1.16247904100569097E-02
  1.17710122728998390E-02  1.19190733803587242E-02  1.20689968672828343E-02
  1.22208061595220144E-02  1.23745249775870508E-02  1.25301773403559968E-02
  1.26877875688272222E-02  1.28473802899195799E-02  1.30089804403204310E-02
  1.31726132703820636E-02  1.33383043480670791E-02  1.35060795629434773E-02
  1.36759651302299154E-02  1.38479875948919143E-02  1.40221738357895701E-02
  1.41985510698773975E-02  1.43771468564570740E-02  1.45579891014836066E-02
  1.47411060619256976E-02  1.49265263501809839E-02  1.51142789385467335E-02
  1.53043931637468766E-02  1.54968987315158846E-02  1.56918257212403725E-02
  1.58892045906590777E-02  1.60890661806219019E-02  1.62914417199089209E-02
  1.64963628301098668E-02  1.67038615305651200E-02  1.69139702433688047E-02
  1.71267217984347429E-02  1.73421494386262857E-02  1.75602868249504877E-02
  1.77811680418177645E-02  1.80048276023676498E-02  1.82313004538615028E-02
  1.84606219831431467E-02  1.86928280221680884E-02  1.89279548536023384E-02
  1.91660392164916919E-02  1.94071183120022271E-02  1.96512298092331068E-02
  1.98984118511024190E-02  2.01487030603070896E-02  2.04021425453577987E-02
  2.06587699066896890E-02  2.09186252428501078E-02  2.11817491567639904E-02
  2.14481827620782162E-02  2.17179676895856884E-02  2.19911460937302003E-02
  2.22677606591931976E-02  2.25478546075633113E-02  2.28314717040898063E-02
  2.31186562645210730E-02  2.34094531620289287E-02  2.37039078342202621E-02
  2.40020662902366705E-02  2.43039751179434972E-02  2.46096814912093384E-02
  2.49192331772769664E-02  2.52326785442271058E-02  2.55500665685360756E-02
  2.58714468427283795E-02  2.61968695831257432E-02  2.65263856376934115E-02
  2.68600464939853130E-02  2.71979042871891008E-02  2.75400118082723133E-02
  2.78864225122311682E-02  2.82371905264429297E-02  2.85923706591234457E-02
  2.89520184078910919E-02  2.93161899684382943E-02  2.96849422433123310E-02
  3.00583328508063699E-02  3.04364201339624892E-02  3.08192631696879334E-02
  3.12069217779859034E-02  3.15994565313026665E-02  3.19969287639920510E-02
  3.23994005818990446E-02  3.28069348720640697E-02  3.32195953125490676E-02
  3.36374463823874564E-02  3.40605533716590095E-02  3.44889823916916041E-02
  3.49228003853912991E-02  3.53620751377021758E-02  3.58068752861980463E-02
  3.62572703318070275E-02  3.67133306496713330E-02  3.71751275001435191E-02
  3.76427330399209670E-02  3.81162203333206551E-02  3.85956633636954857E-02
  3.90811370449943574E-02  3.95727172334677108E-02  4.00704807395201035E-02
  4.05745053397120886E-02  4.10848697889128756E-02  4.16016538326059726E-02
  4.21249382193496641E-02  4.26548047133939734E-02  4.31913361074565960E-02
  4.37346162356594959E-02  4.42847299866279895E-02  4.48417633167548790E-02
  4.54058032636312781E-02  4.59769379596464134E-02  4.65552566457585887E-02
  4.71408496854390652E-02  4.77338085787916977E-02  4.83342259768499566E-02
  4.89421956960537988E-02  4.95578127329088652E-02  5.01811732788296078E-02
  5.08123747351695437E-02  5.14515157284404362E-02  5.20986961257228209E-02
  5.27540170502704339E-02  5.34175808973110580E-02  5.40894913500458152E-02
  5.47698533958499365E-02  5.54587733426772922E-02  5.61563588356711538E-02
  5.68627188739841208E-02  5.75779638278092545E-02  5.83022054556257691E-02
  5.90355569216614723E-02  5.97781328135749135E-02  6.05300491603600818E-02
  6.12914234504759042E-02  6.20623746502042273E-02  6.28430232222385310E-02
  6.36334911445063656E-02  6.44339019292289317E-02  6.52443806422197542E-02
  6.60650539224266198E-02  6.68960500017192622E-02  6.77374987249257099E-02
  6.85895315701209735E-02  6.94522816691705708E-02  7.03258838285327342E-02
  7.12104745503222281E-02  7.21061920536389817E-02  7.30131762961653691E-02
  7.39315689960344941E-02  7.48615136539741849E-02  7.58031555757292530E-02
  7.67566418947656787E-02  7.77221215952608319E-02  7.86997455353821290E-02
  7.96896664708592051E-02  8.06920390788522374E-02  8.17070199821204879E-02
  8.27347677734952547E-02  8.37754430406598138E-02  8.48292083912419587E-02
  8.58962284782215785E-02  8.69766700256580927E-02  8.80707018547415843E-02
  8.91784949101711300E-02  9.03002222868654475E-02  9.14360592570093167E-02
  9.25861832974401167E-02  9.37507741173792680E-02  9.49300136865117022E-02
  9.61240862634192561E-02  9.73331784243714471E-02  9.85574790924782645E-02
  9.97971795672100981E-02  1.01052473554288258E-01  1.02323557195952125E-01
  1.03610629101606774E-01  1.04913890378855887E-01  1.06233544664925766E-01
  1.07569798158483387E-01  1.08922859651855719E-01  1.10292940563653907E-01
  1.11680254971807835E-01  1.13085019647016408E-01  1.14507454086618110E-01
  1.15947780548888088E-01  1.17406224087766409E-01  1.18883012588023140E-01
  1.20378376800866230E-01  1.21892550379996190E-01  1.23425769918115324E-01
  1.24978274983895854E-01  1.26550308159412789E-01  1.28142115078048319E-01
  1.29753944462871973E-01  1.31386048165504365E-01  1.33038681205469661E-01
  1.34712101810042451E-01  1.36406571454597114E-01  1.38122354903462863E-01
  1.39859720251294423E-01  1.41618938964961999E-01  1.43400285925968735E-01
  1.45204039473401686E-01  1.47030481447422257E-01  1.48879897233304831E-01
  1.50752575806028605E-01  1.52648809775430438E-01  1.54568895431926229E-01
  1.56513132792806126E-01  1.58481825649113339E-01  1.60475281613112003E-01
  1.62493812166352058E-01  1.64537732708339490E-01  1.66607362605817239E-01
  1.68703025242667448E-01  1.70825048070440771E-01  1.72973762659521246E-01
  1.75149504750935242E-01  1.77352614308811024E-01  1.79583435573499262E-01
  1.81842317115361168E-01  1.84129611889233297E-01  1.86445677289577866E-01
                             </PP_RAB> 
                                  </PP_MESH>
 <PP_NLCC type="real" size="   999" columns="3">
  5.94332434230411599E-01  5.94332434166080725E-01  5.94332434100121265E-01
  5.94332434032491919E-01  5.94332433963150497E-01  5.94332433892053702E-01
  5.94332433819157124E-01  5.94332433744415245E-01  5.94332433667781213E-01
  5.94332433589207176E-01  5.94332433508644065E-01  5.94332433426041473E-01
  5.94332433341347777E-01  5.94332433254510017E-01  5.94332433165473906E-01
  5.94332433074183930E-01  5.94332432980582914E-01  5.94332432884612349E-01
  5.94332432786212395E-01  5.94332432685321321E-01  5.94332432581876069E-01
  5.94332432475812134E-01  5.94332432367063346E-01  5.94332432255561538E-01
  5.94332432141236988E-01  5.94332432024018309E-01  5.94332431903832226E-01
  5.94332431780603576E-01  5.94332431654255422E-01  5.94332431524708715E-01
  5.94332431391882632E-01  5.94332431255694016E-01  5.94332431116057713E-01
  5.94332430972886572E-01  5.94332430826090996E-01  5.94332430675579171E-01
  5.94332430521257171E-01  5.94332430363028408E-01  5.94332430200794182E-01
  5.94332430034452908E-01  5.94332429863900780E-01  5.94332429689030994E-01
  5.94332429509734306E-01  5.94332429325898803E-01  5.94332429137409579E-01
  5.94332428944148727E-01  5.94332428745995456E-01  5.94332428542825753E-01
  5.94332428334512830E-01  5.94332428120926237E-01  5.94332427901932858E-01
  5.94332427677395692E-01  5.94332427447174405E-01  5.94332427211125003E-01
  5.94332426969099936E-01  5.94332426720947993E-01  5.94332426466514074E-01
  5.94332426205639086E-01  5.94332425938160047E-01  5.94332425663909647E-01
  5.94332425382716689E-01  5.94332425094405203E-01  5.94332424798795111E-01
  5.94332424495701672E-01  5.94332424184935371E-01  5.94332423866301918E-01
  5.94332423539602250E-01  5.94332423204632199E-01  5.94332422861182375E-01
  5.94332422509037950E-01  5.94332422147978767E-01  5.94332421777779674E-01
  5.94332421398208965E-01  5.94332421009029277E-01  5.94332420609997358E-01
  5.94332420200863853E-01  5.94332419781373189E-01  5.94332419351263130E-01
  5.94332418910264781E-01  5.94332418458102363E-01  5.94332417994493545E-01
  5.94332417519148337E-01  5.94332417031769644E-01  5.94332416532052821E-01
  5.94332416019685783E-01  5.94332415494348232E-01  5.94332414955711541E-01
  5.94332414403439091E-01  5.94332413837185825E-01  5.94332413256597913E-01
  5.94332412661312537E-01  5.94332412050957104E-01  5.94332411425150475E-01
  5.94332410783501630E-01  5.94332410125609334E-01  5.94332409451062360E-01
  5.94332408759439157E-01  5.94332408050307404E-01  5.94332407323224010E-01
  5.94332406577734340E-01  5.94332405813372544E-01  5.94332405029660893E-01
  5.94332404226109334E-01  5.94332403402215714E-01  5.94332402557465334E-01
  5.94332401691329948E-01  5.94332400803268213E-01  5.94332399892725016E-01
  5.94332398959131369E-01  5.94332398001903739E-01  5.94332397020443604E-01
  5.94332396014137787E-01  5.94332394982357459E-01  5.94332393924457358E-01
  5.94332392839776236E-01  5.94332391727636411E-01  5.94332390587342663E-01
  5.94332389418182006E-01  5.94332388219424024E-01  5.94332386990319539E-01
  5.94332385730099833E-01  5.94332384437977534E-01  5.94332383113145180E-01
  5.94332381754774430E-01  5.94332380362016410E-01  5.94332378934000594E-01
  5.94332377469834250E-01  5.94332375968602555E-01  5.94332374429367039E-01
  5.94332372851165469E-01  5.94332371233011192E-01  5.94332369573893682E-01
  5.94332367872775436E-01  5.94332366128592748E-01  5.94332364340255825E-01
  5.94332362506647338E-01  5.94332360626620870E-01  5.94332358699001029E-01
  5.94332356722583333E-01  5.94332354696132437E-01  5.94332352618381576E-01
  5.94332350488032346E-01  5.94332348303752922E-01  5.94332346064178396E-01
  5.94332343767908555E-01  5.94332341413508658E-01  5.94332338999506660E-01
  5.94332336524393989E-01  5.94332333986623773E-01  5.94332331384609169E-01
  5.94332328716724256E-01  5.94332325981301812E-01  5.94332323176631760E-01
  5.94332320300961059E-01  5.94332317352492479E-01  5.94332314329382938E-01
  5.94332311229743282E-01  5.94332308051635727E-01  5.94332304793073862E-01
  5.94332301452021539E-01  5.94332298026389649E-01  5.94332294514037796E-01
  5.94332290912769956E-01  5.94332287220336042E-01  5.94332283434427455E-01
  5.94332279552678311E-01  5.94332275572661994E-01  5.94332271491891384E-01
  5.94332267307815409E-01  5.94332263017819162E-01  5.94332258619221121E-01
  5.94332254109272040E-01  5.94332249485152841E-01  5.94332244743973837E-01
  5.94332239882771507E-01  5.94332234898506950E-01  5.94332229788064992E-01
  5.94332224548252075E-01  5.94332219175792376E-01  5.94332213667328357E-01
  5.94332208019416997E-01  5.94332202228527895E-01  5.94332196291042059E-01
  5.94332190203247679E-01  5.94332183961340355E-01  5.94332177561418762E-01
  5.94332170999481546E-01  5.94332164271428876E-01  5.94332157373054448E-01
  5.94332150300047046E-01  5.94332143047985428E-01  5.94332135612337331E-01
  5.94332127988454917E-01  5.94332120171572886E-01  5.94332112156805814E-01
  5.94332103939143819E-01  5.94332095513450898E-01  5.94332086874460486E-01
  5.94332078016773346E-01  5.94332068934852242E-01  5.94332059623021935E-01
  5.94332050075461416E-01  5.94332040286203123E-01  5.94332030249128840E-01
  5.94332019957964919E-01  5.94332009406278949E-01  5.94331998587475874E-01
  5.94331987494793657E-01  5.94331976121298955E-01  5.94331964459883011E-01
  5.94331952503256988E-01  5.94331940243947643E-01  5.94331927674292548E-01
  5.94331914786435322E-01  5.94331901572320520E-01  5.94331888023688970E-01
  5.94331874132072335E-01  5.94331859888788117E-01  5.94331845284933435E-01
  5.94331830311380815E-01  5.94331814958770854E-01  5.94331799217508117E-01
  5.94331783077753251E-01  5.94331766529419325E-01  5.94331749562161948E-01
  5.94331732165377491E-01  5.94331714328190985E-01  5.94331696039454571E-01
  5.94331677287736504E-01  5.94331658061317047E-01  5.94331638348178926E-01
  5.94331618136000439E-01  5.94331597412148693E-01  5.94331576163670383E-01
  5.94331554377284910E-01  5.94331532039374610E-01  5.94331509135978320E-01
  5.94331485652779934E-01  5.94331461575102193E-01  5.94331436887895470E-01
  5.94331411575729884E-01  5.94331385622784092E-01  5.94331359012837068E-01
  5.94331331729256784E-01  5.94331303754990214E-01  5.94331275072552012E-01
  5.94331245664015517E-01  5.94331215510998767E-01  5.94331184594656170E-01
  5.94331152895662851E-01  5.94331120394207213E-01  5.94331087069973729E-01
  5.94331052902134505E-01  5.94331017869333289E-01  5.94330981949673820E-01
  5.94330945120704945E-01  5.94330907359407523E-01  5.94330868642179211E-01
  5.94330828944821365E-01  5.94330788242521391E-01  5.94330746509839303E-01
  5.94330703720690967E-01  5.94330659848331777E-01  5.94330614865340334E-01
  5.94330568743600796E-01  5.94330521454285776E-01  5.94330472967838253E-01
  5.94330423253952356E-01  5.94330372281555719E-01  5.94330320018789382E-01
  5.94330266432987031E-01  5.94330211490656346E-01  5.94330155157456463E-01
  5.94330097398177770E-01  5.94330038176719033E-01  5.94329977456065084E-01
  5.94329915198263725E-01  5.94329851364402417E-01  5.94329785914582631E-01
  5.94329718807896756E-01  5.94329650002401011E-01  5.94329579455090240E-01
  5.94329507121870271E-01  5.94329432957530823E-01  5.94329356915717089E-01
  5.94329278948900974E-01  5.94329199008351128E-01  5.94329117044102295E-01
  5.94329033004924789E-01  5.94328946838291627E-01  5.94328858490346668E-01
  5.94328767905869526E-01  5.94328675028243270E-01  5.94328579799416334E-01
  5.94328482159868443E-01  5.94328382048572190E-01  5.94328279402955406E-01
  5.94328174158862299E-01  5.94328066250511822E-01  5.94327955610459258E-01
  5.94327842169551590E-01  5.94327725856884981E-01  5.94327606599761804E-01
  5.94327484323643129E-01  5.94327358952102758E-01  5.94327230406781259E-01
  5.94327098607334681E-01  5.94326963471384584E-01  5.94326824914468421E-01
  5.94326682849984356E-01  5.94326537189138970E-01  5.94326387840891202E-01
  5.94326234711894497E-01  5.94326077706439970E-01  5.94325916726395787E-01
  5.94325751671145874E-01  5.94325582437527089E-01  5.94325408919764819E-01
  5.94325231009406596E-01  5.94325048595254923E-01  5.94324861563297113E-01
  5.94324669796634342E-01  5.94324473175408707E-01  5.94324271576727958E-01
  5.94324064874589220E-01  5.94323852939799613E-01  5.94323635639895653E-01
  5.94323412839061316E-01  5.94323184398041882E-01  5.94322950174057674E-01
  5.94322710020714906E-01  5.94322463787913313E-01  5.94322211321753446E-01
  5.94321952464440195E-01  5.94321687054183312E-01  5.94321414925097713E-01
  5.94321135907098452E-01  5.94320849825795361E-01  5.94320556502383468E-01
  5.94320255753532090E-01  5.94319947391269032E-01  5.94319631222864242E-01
  5.94319307050708567E-01  5.94318974672190747E-01  5.94318633879570624E-01
  5.94318284459849355E-01  5.94317926194636303E-01  5.94317558860012141E-01
  5.94317182226389851E-01  5.94316796058370733E-01  5.94316400114595855E-01
  5.94315994147599169E-01  5.94315577903647640E-01  5.94315151122587260E-01
  5.94314713537677730E-01  5.94314264875426712E-01  5.94313804855418626E-01
  5.94313333190140458E-01  5.94312849584800018E-01  5.94312353737143528E-01
  5.94311845337266442E-01  5.94311324067419267E-01  5.94310789601808720E-01
  5.94310241606395229E-01  5.94309679738683538E-01  5.94309103647508663E-01
  5.94308512972816616E-01  5.94307907345439146E-01  5.94307286386863254E-01
  5.94306649708995494E-01  5.94305996913917167E-01  5.94305327593638522E-01
  5.94304641329841621E-01  5.94303937693620221E-01  5.94303216245210875E-01
  5.94302476533719148E-01  5.94301718096836740E-01  5.94300940460554039E-01
  5.94300143138861925E-01  5.94299325633450337E-01  5.94298487433395528E-01
  5.94297628014840984E-01  5.94296746840670131E-01  5.94295843360171938E-01
  5.94294917008694523E-01  5.94293967207294105E-01  5.94292993362372957E-01
  5.94291994865308482E-01  5.94290971092072406E-01  5.94289921402841759E-01
  5.94288845141598965E-01  5.94287741635720845E-01  5.94286610195560616E-01
  5.94285450114014346E-01  5.94284260666081754E-01  5.94283041108411458E-01
  5.94281790678837574E-01  5.94280508595902979E-01  5.94279194058371818E-01
  5.94277846244727792E-01  5.94276464312663011E-01  5.94275047398549305E-01
  5.94273594616900658E-01  5.94272105059818978E-01  5.94270577796428112E-01
  5.94269011872291086E-01  5.94267406308814361E-01  5.94265760102637208E-01
  5.94264072225004547E-01  5.94262341621124013E-01  5.94260567209507484E-01
  5.94258747881296290E-01  5.94256882499566874E-01  5.94254969898622920E-01
  5.94253008883265599E-01  5.94250998228047944E-01  5.94248936676509021E-01
  5.94246822940390218E-01  5.94244655698829560E-01  5.94242433597537922E-01
  5.94240155247952373E-01  5.94237819226369535E-01  5.94235424073056628E-01
  5.94232968291340202E-01  5.94230450346670991E-01  5.94227868665665904E-01
  5.94225221635126477E-01  5.94222507601030236E-01  5.94219724867499410E-01
  5.94216871695741000E-01  5.94213946302962426E-01  5.94210946861257527E-01
  5.94207871496465256E-01  5.94204718287001610E-01  5.94201485262657703E-01
  5.94198170403371972E-01  5.94194771637967856E-01  5.94191286842861266E-01
  5.94187713840736542E-01  5.94184050399185204E-01  5.94180294229315176E-01
  5.94176442984320041E-01  5.94172494258016437E-01  5.94168445583341698E-01
  5.94164294430814088E-01  5.94160038206955177E-01  5.94155674252670463E-01
  5.94151199841592592E-01  5.94146612178377942E-01  5.94141908396963681E-01
  5.94137085558780642E-01  5.94132140650918683E-01  5.94127070584248629E-01
  5.94121872191495037E-01  5.94116542225260114E-01  5.94111077355999662E-01
  5.94105474169945302E-01  5.94099729166976509E-01  5.94093838758438353E-01
  5.94087799264902516E-01  5.94081606913874793E-01  5.94075257837441972E-01
  5.94068748069860875E-01  5.94062073545086444E-01  5.94055230094237219E-01
  5.94048213442996742E-01  5.94041019208949694E-01  5.94033642898850633E-01
  5.94026079905824789E-01  5.94018325506496359E-01  5.94010374858046308E-01
  5.94002222995195339E-01  5.93993864827110918E-01  5.93985295134234703E-01
  5.93976508565034034E-01  5.93967499632667484E-01  5.93958262711567819E-01
  5.93948792033940021E-01  5.93939081686169712E-01  5.93929125605141772E-01
  5.93918917574466132E-01  5.93908451220608313E-01  5.93897720008922714E-01
  5.93886717239586748E-01  5.93875436043431848E-01  5.93863869377669329E-01
  5.93852010021509891E-01  5.93839850571671657E-01  5.93827383437776524E-01
  5.93814600837629825E-01  5.93801494792381757E-01  5.93788057121566459E-01
  5.93774279438018082E-01  5.93760153142656955E-01  5.93745669419147304E-01
  5.93730819228417972E-01  5.93715593303047906E-01  5.93699982141509763E-01
  5.93683976002268743E-01  5.93667564897734090E-01  5.93650738588057725E-01
  5.93633486574779545E-01  5.93615798094309421E-01  5.93597662111251201E-01
  5.93579067311554520E-01  5.93560002095497197E-01  5.93540454570492870E-01
  5.93520412543715237E-01  5.93499863514541315E-01  5.93478794666803311E-01
  5.93457192860847527E-01  5.93435044625393426E-01  5.93412336149191089E-01
  5.93389053272468381E-01  5.93365181478165971E-01  5.93340705882950736E-01
  5.93315611228008688E-01  5.93289881869603297E-01  5.93263501769403345E-01
  5.93236454484565856E-01  5.93208723157571116E-01  5.93180290505808783E-01
  5.93151138810899758E-01  5.93121249907754389E-01  5.93090605173358321E-01
  5.93059185515278919E-01  5.93026971359885136E-01  5.92993942640274718E-01
  5.92960078783903777E-01  5.92925358699903815E-01  5.92889760766091123E-01
  5.92853262815645654E-01  5.92815842123466719E-01  5.92777475392186060E-01
  5.92738138737835540E-01  5.92697807675161448E-01  5.92656457102572531E-01
  5.92614061286718341E-01  5.92570593846684424E-01  5.92526027737799610E-01
  5.92480335235040179E-01  5.92433487916028345E-01  5.92385456643607644E-01
  5.92336211547993319E-01  5.92285722008479509E-01  5.92233956634699243E-01
  5.92180883247421685E-01  5.92126468858879540E-01  5.92070679652611509E-01
  5.92013480962813476E-01  5.91954837253180988E-01  5.91894712095234810E-01
  5.91833068146116692E-01  5.91769867125842342E-01  5.91705069793999061E-01
  5.91638635925874512E-01  5.91570524288005717E-01  5.91500692613129653E-01
  5.91429097574528884E-01  5.91355694759750694E-01  5.91280438643690509E-01
  5.91203282561021837E-01  5.91124178677960632E-01  5.91043077963344987E-01
  5.90959930159019042E-01  5.90874683749499807E-01  5.90787285930915340E-01
  5.90697682579196415E-01  5.90605818217503131E-01  5.90511635982869931E-01
  5.90415077592054471E-01  5.90316083306567263E-01  5.90214591896867091E-01
  5.90110540605704670E-01  5.90003865110593106E-01  5.89894499485386525E-01
  5.89782376160948085E-01  5.89667425884887741E-01  5.89549577680349435E-01
  5.89428758803823394E-01  5.89304894701969784E-01  5.89177908967427832E-01
  5.89047723293585568E-01  5.88914257428298726E-01  5.88777429126523755E-01
  5.88637154101853466E-01  5.88493345976922488E-01  5.88345916232670407E-01
  5.88194774156426736E-01  5.88039826788803288E-01  5.87880978869366411E-01
  5.87718132781063329E-01  5.87551188493379173E-01  5.87380043504199034E-01
  5.87204592780351642E-01  5.87024728696805553E-01  5.86840340974494667E-01
  5.86651316616745744E-01  5.86457539844282727E-01  5.86258892028779344E-01
  5.86055251624934881E-01  5.85846494101046278E-01  5.85632491868048999E-01
  5.85413114206998042E-01  5.85188227194965438E-01  5.84957693629323927E-01
  5.84721372950389284E-01  5.84479121162396975E-01  5.84230790752782725E-01
  5.83976230609740687E-01  5.83715285938033457E-01  5.83447798173024057E-01
  5.83173604892907593E-01  5.82892539729109926E-01  5.82604432274833495E-01
  5.82309107991719976E-01  5.82006388114606921E-01  5.81696089554351703E-01
  5.81378024798699156E-01  5.81052001811170893E-01  5.80717823927950461E-01
  5.80375289752741774E-01  5.80024193049586412E-01  5.79664322633608120E-01
  5.79295462259676541E-01  5.78917390508964735E-01  5.78529880673387287E-01
  5.78132700637903896E-01  5.77725612760671026E-01  5.77308373751037829E-01
  5.76880734545366702E-01  5.76442440180678584E-01  5.75993229666111550E-01
  5.75532835852194169E-01  5.75060985297929594E-01  5.74577398135694084E-01
  5.74081787933953702E-01  5.73573861557808540E-01  5.73053319027378438E-01
  5.72519853374039545E-01  5.71973150494538229E-01  5.71412889003000912E-01
  5.70838740080871987E-01  5.70250367324810381E-01  5.69647426592582606E-01
  5.69029565847002816E-01  5.68396424997958616E-01  5.67747635742591128E-01
  5.67082821403684378E-01  5.66401596766338167E-01  5.65703567913000471E-01
  5.64988332056947984E-01  5.64255477374309700E-01  5.63504582834735701E-01
  5.62735218030827711E-01  5.61946943006457089E-01  5.61139308084102395E-01
  5.60311853691361605E-01  5.59464110186788433E-01  5.58595597685240586E-01
  5.57705825882914952E-01  5.56794293882282743E-01  5.55860490017136333E-01
  5.54903891677990813E-01  5.53923965138086727E-01  5.52920165380274331E-01
  5.51891935925066024E-01  5.50838708660176812E-01  5.49759903671884875E-01
  5.48654929078577380E-01  5.47523180866865800E-01  5.46364042730679955E-01
  5.45176885913789877E-01  5.43961069056217328E-01  5.42715938045048363E-01
  5.41440825870175724E-01  5.40135052485547940E-01  5.38797924676530426E-01
  5.37428735934027846E-01  5.36026766336059501E-01  5.34591282437518744E-01
  5.33121537168898652E-01  5.31616769744815643E-01  5.30076205583207116E-01
  5.28499056236147013E-01  5.26884519333267076E-01  5.25231778538843508E-01
  5.23540003523666919E-01  5.21808349952883166E-01  5.20035959491068178E-01
  5.18221959825866829E-01  5.16365464711615707E-01  5.14465574034447370E-01
  5.12521373900465593E-01  5.10531936748673698E-01  5.08496321490435887E-01
  5.06413573677362616E-01  5.04282725699609857E-01  5.02102797016701685E-01
  4.99872794423116051E-01  4.97591712350990811E-01  4.95258533212457608E-01
  4.92872227784232786E-01  4.90431755637268429E-01  4.87936065614408887E-01
  4.85384096359172679E-01  4.82774776898959479E-01  4.80107027286155896E-01
  4.77379759300826989E-01  4.74591877218870084E-01  4.71742278649736224E-01
  4.68829855448050947E-01  4.65853494703702742E-01  4.62812079815229704E-01
  4.59704491651597602E-01  4.56529609807742820E-01  4.53286313959558262E-01
  4.49973485324305145E-01  4.46590008232767066E-01  4.43134771819808038E-01
  4.39606671840364893E-01  4.36004612618281773E-01  4.32327509135810806E-01
  4.28574289272026843E-01  4.24743896198823356E-01  4.20835290943665563E-01
  4.16847455128773692E-01  4.12779393896915980E-01  4.08630139034544315E-01
  4.04398752303593623E-01  4.00084328993866478E-01  3.95686001708576873E-01
  3.91202944396297825E-01  3.86634376643268496E-01  3.81979568240771672E-01
  3.77237844043072423E-01  3.72408589132245949E-01  3.67491254307093174E-01
  3.62485361914256676E-01  3.57390512040628050E-01  3.52206389087139526E-01
  3.46932768745118580E-01  3.41569525397500628E-01  3.36116639968381314E-01
  3.30574208245645040E-01  3.24942449702705527E-01  3.19221716846784465E-01
  3.13412505122606599E-01  3.07515463401915379E-01  3.01531405090870730E-01
  2.95461319888899843E-01  2.89306386234554791E-01  2.83067984475765255E-01
  2.76747710803775859E-01  2.70347391992170283E-01  2.63869100984548077E-01
  2.57315173376721773E-01  2.50688224841714324E-01  2.43991169548359865E-01
  2.37227239627000375E-01  2.30400005738552904E-01  2.23513398806192531E-01
  2.16571732971994696E-01  2.09579729844138390E-01  2.02542544103722300E-01
  1.95465790543843720E-01  1.88355572617397243E-01  1.81218512574049140E-01
  1.74061783271036025E-01  1.66893141746872392E-01  1.59720964651685920E-01
  1.52554285632799408E-01  1.45402834779319423E-01  1.38277080234894989E-01
  1.31188272093573338E-01  1.24148488699654030E-01  1.17170685478197270E-01
  1.10268746430375389E-01  1.03457538434314350E-01  9.67529684994050676E-02
  9.01720441297932246E-02  8.37329369608589974E-02  7.74550498410060545E-02
  7.13590875400220565E-02  6.54671312746946121E-02  5.98027172522490602E-02
  5.43909194425592421E-02  4.92584368005866968E-02  4.44336851657162954E-02
  3.99468939878867002E-02  3.58298181572128394E-02  3.20916515377838649E-02
  2.87048779461254490E-02  2.56406280334427854E-02  2.28719985774156649E-02
  2.03739525490816940E-02  1.81232220073918905E-02  1.60982140512608667E-02
  1.42789197527194260E-02  1.26468259752887252E-02  1.11848300086836161E-02
  9.87715697093415231E-03  8.70927997043557077E-03  7.66784305178885503E-03
  6.74058695010087278E-03  5.91627769004293355E-03  5.18463806630786207E-03
  4.53628203693428895E-03  3.96265205202616256E-03  3.45595932900409977E-03
  3.00912707274478535E-03  2.61573662565750499E-03  2.26997651954866358E-03
  1.96659438850785512E-03  1.70085169033124765E-03  1.46848117338204613E-03
  1.26564701638998264E-03  1.08890756055279826E-03  9.35180546419465421E-04
  8.01710762371395796E-04  6.86040007012345197E-04  5.85979264360578602E-04
  4.99582988327290818E-04  4.25125391484356969E-04  3.61078632489710265E-04
  3.06092796835569258E-04  2.58977566185060774E-04  2.18685472074786960E-04
  1.84296634166110140E-04  1.55004883855521685E-04  1.30105177184080981E-04
  1.08982204366532413E-04  9.11001067781243388E-05  7.59932159890049905E-05
  6.32577333695888601E-05  5.25442728556896183E-05  4.35511936132013688E-05
  3.60186535363490610E-05  2.97233187118955657E-05  2.44736681494101591E-05
  2.01058371833394931E-05  1.64799469688549507E-05  1.34768713966668916E-05
  1.09953965220826946E-05  8.94973122421406113E-06  7.26733126910314627E-06
  5.88700223590821613E-06  4.75724987078229572E-06  3.83484935463056796E-06
  3.08360770647221812E-06  2.47329609512362194E-06  1.97873120278826337E-06
  1.57898693503374852E-06  1.25671984073892967E-06  9.97593422016696343E-07
  7.89788184086380060E-07  6.23585813832587164E-07  4.91017259873680784E-07
  3.85565735103850175E-07  3.01916783986720403E-07  2.35748560423068255E-07
  1.83556356784985852E-07  1.42506219513696279E-07  1.10313190060882893E-07
  8.51403301395694827E-08  6.55152350670930365E-08  5.02612158373043321E-08
  3.84407464056397291E-08  2.93091339913960223E-08  2.22766830027127287E-08
  1.68778930001384862E-08  1.27464629947184460E-08  9.59507293147421665E-09
  7.19908260658416528E-09  5.38343225862315335E-09  4.01215102265690458E-09
  2.97998236238428199E-09  2.20572195054617155E-09  1.62693609148875028E-09
  1.19578923186048258E-09  8.75759193457094037E-10  6.39060447821612622E-10
  4.64630076377232146E-10  3.36559262581607102E-10  2.42876248376127656E-10
  1.74605510652317744E-10  1.25043201098861934E-10  8.92012594944951579E-11
  6.33825742964304005E-11  4.48575596981112146E-11  3.16189079227093610E-11
  2.21963608473452634E-11  1.55173755331617601E-11  1.08027392770127757E-11
  7.48868979304786639E-12  5.16905248630434223E-12  3.55243110345712167E-12
  2.43067056743647829E-12  1.65572412627382532E-12  1.12275921757553268E-12
  7.57874013694370120E-13  5.09206245628239456E-13  3.40526544405330749E-13
  2.26643156842319112E-13  1.50121226813325730E-13  9.89515353793361280E-14
  6.49017804559525673E-14  4.23561667576779196E-14  2.75026535639076555E-14
  1.77665059950711095E-14  1.14174765923478285E-14  7.29877087286112742E-15
  4.64099691679380979E-15  2.93511324540117668E-15  1.84612113237995618E-15
  1.15474641954904069E-15  7.18245873248091627E-16  4.44210028422695072E-16
  2.73149580238919283E-16  1.66985039285862424E-16  1.01481518086184220E-16
  6.13049951502182765E-17  3.68104441614622254E-17  2.19674140187728912E-17
  1.30282326004968411E-17  7.67814625173004144E-18  4.49631583538722355E-18
  2.61608427465839085E-18  1.51218773631724028E-18  8.68326259557012240E-19
  4.95275888534449097E-19  2.80583318749404031E-19  1.57866469174731703E-19
  8.82051388542166496E-20  4.89368441304028646E-20  2.69573880396875829E-20
  1.47428247339851000E-20  8.00396989935183466E-21  4.31332709555931381E-21
  2.30707346745395843E-21  1.22464987214122633E-21  6.45093780948865568E-22
  3.37172832253694186E-22  1.74847325100567136E-22  8.99496500599190834E-23
  4.59019205275044603E-23  2.32332197024279811E-23  1.16624771389820071E-23
  5.80537377091657021E-24  2.86537882187096401E-24  1.40216868458322525E-24
  6.80202341893358281E-25  3.27075916875431692E-25  1.55877720500277690E-25
  7.36201030378940311E-26  3.44537865325994877E-26  1.59755685081798835E-26
  7.33845373333957908E-27  3.33911288180196665E-27  1.50482063490868729E-27
  6.71604538515597415E-28  2.96800926118244982E-28  1.29863306904687142E-28
  5.62501122526198301E-29  2.41169021157446206E-29  1.02335328413013712E-29
  4.29713764545211555E-30  1.78535703985343355E-30  7.33848800932187766E-31
  2.98377091695093406E-31  1.19989334526328161E-31  4.77175518647132400E-32
  1.87633848308965672E-32  7.29423917871505673E-33  2.80299219665231083E-33
  1.06456730763852119E-33  3.99548055889665081E-34  1.48164715156605475E-34
  5.42794253477599007E-35  1.96414882104008823E-35  7.01932661434628342E-36
  2.47702745605212291E-36  8.63002540283578657E-37  2.96804138421082441E-37
  1.00747516252464401E-37  3.37469319122082010E-38  1.11531604450526235E-38
  3.63624028166147619E-39  1.16929612814667621E-39  3.70799523634188406E-40
  1.15936710270802999E-40  3.57349642742979556E-41  1.08562210911560222E-41
  3.25011125030602176E-42  9.58676552889283898E-43  2.78560279500290726E-43
  7.97181159555771045E-44  2.24647585104780294E-44  6.23255192725081046E-45
                             </PP_NLCC> 
 <PP_LOCAL type="real" size="   999" columns="3">
 -2.12749291840400190E+01 -2.12749291841010155E+01 -2.12749291841635575E+01
 -2.12749291842276804E+01 -2.12749291842934234E+01 -2.12749291843608326E+01
 -2.12749291844299471E+01 -2.12749291845008095E+01 -2.12749291845734696E+01
 -2.12749291846479736E+01 -2.12749291847243676E+01 -2.12749291848026942E+01
 -2.12749291848830033E+01 -2.12749291849653410E+01 -2.12749291850497571E+01
 -2.12749291851363118E+01 -2.12749291852250622E+01 -2.12749291853160578E+01
 -2.12749291854093556E+01 -2.12749291855050195E+01 -2.12749291856031029E+01
 -2.12749291857036695E+01 -2.12749291858067835E+01 -2.12749291859125087E+01
 -2.12749291860209091E+01 -2.12749291861320557E+01 -2.12749291862460126E+01
 -2.12749291863628542E+01 -2.12749291864826482E+01 -2.12749291866054762E+01
 -2.12749291867314163E+01 -2.12749291868605468E+01 -2.12749291869929493E+01
 -2.12749291871287021E+01 -2.12749291872678867E+01 -2.12749291874105957E+01
 -2.12749291875569178E+01 -2.12749291877069524E+01 -2.12749291878607814E+01
 -2.12749291880185076E+01 -2.12749291881802236E+01 -2.12749291883460288E+01
 -2.12749291885160297E+01 -2.12749291886903329E+01 -2.12749291888690557E+01
 -2.12749291890523047E+01 -2.12749291892401864E+01 -2.12749291894328252E+01
 -2.12749291896303419E+01 -2.12749291898328607E+01 -2.12749291900405062E+01
 -2.12749291902534026E+01 -2.12749291904716920E+01 -2.12749291906955094E+01
 -2.12749291909249933E+01 -2.12749291911602825E+01 -2.12749291914015259E+01
 -2.12749291916488801E+01 -2.12749291919025083E+01 -2.12749291921625492E+01
 -2.12749291924291661E+01 -2.12749291927025261E+01 -2.12749291929828104E+01
 -2.12749291932701965E+01 -2.12749291935648621E+01 -2.12749291938669884E+01
 -2.12749291941767567E+01 -2.12749291944943622E+01 -2.12749291948200074E+01
 -2.12749291951539057E+01 -2.12749291954962594E+01 -2.12749291958472710E+01
 -2.12749291962071609E+01 -2.12749291965761671E+01 -2.12749291969545204E+01
 -2.12749291973424555E+01 -2.12749291977402102E+01 -2.12749291981480262E+01
 -2.12749291985661699E+01 -2.12749291989949043E+01 -2.12749291994344851E+01
 -2.12749291998851930E+01 -2.12749292003473194E+01 -2.12749292008211413E+01
 -2.12749292013069535E+01 -2.12749292018050582E+01 -2.12749292023157821E+01
 -2.12749292028394450E+01 -2.12749292033763631E+01 -2.12749292039268560E+01
 -2.12749292044912757E+01 -2.12749292050700021E+01 -2.12749292056633976E+01
 -2.12749292062717927E+01 -2.12749292068955782E+01 -2.12749292075351697E+01
 -2.12749292081909616E+01 -2.12749292088633482E+01 -2.12749292095527487E+01
 -2.12749292102596037E+01 -2.12749292109843537E+01 -2.12749292117274429E+01
 -2.12749292124893579E+01 -2.12749292132705641E+01 -2.12749292140715376E+01
 -2.12749292148927793E+01 -2.12749292157348293E+01 -2.12749292165981920E+01
 -2.12749292174833933E+01 -2.12749292183910157E+01 -2.12749292193216277E+01
 -2.12749292202757871E+01 -2.12749292212540837E+01 -2.12749292222571498E+01
 -2.12749292232856355E+01 -2.12749292243401484E+01 -2.12749292254213387E+01
 -2.12749292265299168E+01 -2.12749292276665614E+01 -2.12749292288319580E+01
 -2.12749292300268742E+01 -2.12749292312520595E+01 -2.12749292325082351E+01
 -2.12749292337961933E+01 -2.12749292351167760E+01 -2.12749292364708005E+01
 -2.12749292378591051E+01 -2.12749292392825353E+01 -2.12749292407419652E+01
 -2.12749292422384073E+01 -2.12749292437727675E+01 -2.12749292453458700E+01
 -2.12749292469587878E+01 -2.12749292486126187E+01 -2.12749292503083289E+01
 -2.12749292520469027E+01 -2.12749292538294696E+01 -2.12749292556571881E+01
 -2.12749292575312055E+01 -2.12749292594526587E+01 -2.12749292614227308E+01
 -2.12749292634426581E+01 -2.12749292655137516E+01 -2.12749292676372690E+01
 -2.12749292698145460E+01 -2.12749292720469256E+01 -2.12749292743358254E+01
 -2.12749292766826592E+01 -2.12749292790888873E+01 -2.12749292815560871E+01
 -2.12749292840857400E+01 -2.12749292866793631E+01 -2.12749292893386510E+01
 -2.12749292920653410E+01 -2.12749292948610318E+01 -2.12749292977274251E+01
 -2.12749293006663933E+01 -2.12749293036798548E+01 -2.12749293067695469E+01
 -2.12749293099373489E+01 -2.12749293131854884E+01 -2.12749293165158520E+01
 -2.12749293199304432E+01 -2.12749293234315111E+01 -2.12749293270211872E+01
 -2.12749293307017382E+01 -2.12749293344755124E+01 -2.12749293383447835E+01
 -2.12749293423119852E+01 -2.12749293463796434E+01 -2.12749293505502415E+01
 -2.12749293548264404E+01 -2.12749293592109545E+01 -2.12749293637063523E+01
 -2.12749293683155791E+01 -2.12749293730415303E+01 -2.12749293778870943E+01
 -2.12749293828553192E+01 -2.12749293879493031E+01 -2.12749293931722292E+01
 -2.12749293985273873E+01 -2.12749294040181809E+01 -2.12749294096478110E+01
 -2.12749294154201358E+01 -2.12749294213385056E+01 -2.12749294274065797E+01
 -2.12749294336285111E+01 -2.12749294400077531E+01 -2.12749294465485370E+01
 -2.12749294532549236E+01 -2.12749294601310730E+01 -2.12749294671812912E+01
 -2.12749294744099124E+01 -2.12749294818216477E+01 -2.12749294894209129E+01
 -2.12749294972125860E+01 -2.12749295052015270E+01 -2.12749295133926317E+01
 -2.12749295217911047E+01 -2.12749295304022894E+01 -2.12749295392313620E+01
 -2.12749295482838541E+01 -2.12749295575656916E+01 -2.12749295670823919E+01
 -2.12749295768399840E+01 -2.12749295868445927E+01 -2.12749295971025667E+01
 -2.12749296076200558E+01 -2.12749296184038528E+01 -2.12749296294606651E+01
 -2.12749296407973105E+01 -2.12749296524210294E+01 -2.12749296643388419E+01
 -2.12749296765584930E+01 -2.12749296890873971E+01 -2.12749297019334662E+01
 -2.12749297151047436E+01 -2.12749297286093615E+01 -2.12749297424559671E+01
 -2.12749297566529805E+01 -2.12749297712093934E+01 -2.12749297861342654E+01
 -2.12749298014371107E+01 -2.12749298171270240E+01 -2.12749298332144257E+01
 -2.12749298497087587E+01 -2.12749298666208766E+01 -2.12749298839608834E+01
 -2.12749299017400908E+01 -2.12749299199691002E+01 -2.12749299386596320E+01
 -2.12749299578233320E+01 -2.12749299774720946E+01 -2.12749299976182407E+01
 -2.12749300182743255E+01 -2.12749300394534089E+01 -2.12749300611683552E+01
 -2.12749300834332082E+01 -2.12749301062615466E+01 -2.12749301296677622E+01
 -2.12749301536664319E+01 -2.12749301782726548E+01 -2.12749302035016186E+01
 -2.12749302293693070E+01 -2.12749302558917037E+01 -2.12749302830855100E+01
 -2.12749303109675409E+01 -2.12749303395555387E+01 -2.12749303688669791E+01
 -2.12749303989204641E+01 -2.12749304297345851E+01 -2.12749304613288359E+01
 -2.12749304937226285E+01 -2.12749305269365578E+01 -2.12749305609909740E+01
 -2.12749305959076374E+01 -2.12749306317078286E+01 -2.12749306684143846E+01
 -2.12749307060500144E+01 -2.12749307446382119E+01 -2.12749307842031747E+01
 -2.12749308247695481E+01 -2.12749308663627659E+01 -2.12749309090087166E+01
 -2.12749309527341346E+01 -2.12749309975661980E+01 -2.12749310435330727E+01
 -2.12749310906634364E+01 -2.12749311389865952E+01 -2.12749311885329924E+01
 -2.12749312393332772E+01 -2.12749312914194313E+01 -2.12749313448239334E+01
 -2.12749313995800016E+01 -2.12749314557220046E+01 -2.12749315132849972E+01
 -2.12749315723048333E+01 -2.12749316328184470E+01 -2.12749316948636604E+01
 -2.12749317584791342E+01 -2.12749318237047191E+01 -2.12749318905811364E+01
 -2.12749319591500274E+01 -2.12749320294543800E+01 -2.12749321015379778E+01
 -2.12749321754459864E+01 -2.12749322512243957E+01 -2.12749323289206025E+01
 -2.12749324085831866E+01 -2.12749324902618184E+01 -2.12749325740075044E+01
 -2.12749326598726896E+01 -2.12749327479106363E+01 -2.12749328381768343E+01
 -2.12749329307271573E+01 -2.12749330256196316E+01 -2.12749331229136658E+01
 -2.12749332226695032E+01 -2.12749333249500587E+01 -2.12749334298187023E+01
 -2.12749335373410560E+01 -2.12749336475845006E+01 -2.12749337606173086E+01
 -2.12749338765105485E+01 -2.12749339953364505E+01 -2.12749341171689395E+01
 -2.12749342420843597E+01 -2.12749343701605298E+01 -2.12749345014774427E+01
 -2.12749346361170453E+01 -2.12749347741633876E+01 -2.12749349157025556E+01
 -2.12749350608229513E+01 -2.12749352096151583E+01 -2.12749353621719131E+01
 -2.12749355185885207E+01 -2.12749356789625885E+01 -2.12749358433939797E+01
 -2.12749360119856483E+01 -2.12749361848424243E+01 -2.12749363620722640E+01
 -2.12749365437859339E+01 -2.12749367300964742E+01 -2.12749369211202861E+01
 -2.12749371169764139E+01 -2.12749373177871703E+01 -2.12749375236775791E+01
 -2.12749377347762980E+01 -2.12749379512146426E+01 -2.12749381731280103E+01
 -2.12749384006542961E+01 -2.12749386339356121E+01 -2.12749388731175948E+01
 -2.12749391183488505E+01 -2.12749393697826861E+01 -2.12749396275756197E+01
 -2.12749398918884474E+01 -2.12749401628856916E+01 -2.12749404407365397E+01
 -2.12749407256139236E+01 -2.12749410176953333E+01 -2.12749413171629129E+01
 -2.12749416242030875E+01 -2.12749419390071495E+01 -2.12749422617712796E+01
 -2.12749425926964548E+01 -2.12749429319887007E+01 -2.12749432798593929E+01
 -2.12749436365252436E+01 -2.12749440022078424E+01 -2.12749443771357925E+01
 -2.12749447615412173E+01 -2.12749451556645894E+01 -2.12749455597502894E+01
 -2.12749459740503788E+01 -2.12749463988222658E+01 -2.12749468343305743E+01
 -2.12749472808456979E+01 -2.12749477386459169E+01 -2.12749482080156938E+01
 -2.12749486892469974E+01 -2.12749491826387001E+01 -2.12749496884980793E+01
 -2.12749502071392556E+01 -2.12749507388845274E+01 -2.12749512840645281E+01
 -2.12749518430178739E+01 -2.12749524160917005E+01 -2.12749530036424410E+01
 -2.12749536060341491E+01 -2.12749542236418101E+01 -2.12749548568481970E+01
 -2.12749555060466200E+01 -2.12749561716399143E+01 -2.12749568540411822E+01
 -2.12749575536736515E+01 -2.12749582709714531E+01 -2.12749590063791238E+01
 -2.12749597603530383E+01 -2.12749605333604066E+01 -2.12749613258800103E+01
 -2.12749621384035557E+01 -2.12749629714339612E+01 -2.12749638254872337E+01
 -2.12749647010922622E+01 -2.12749655987911304E+01 -2.12749665191395430E+01
 -2.12749674627067726E+01 -2.12749684300765836E+01 -2.12749694218474659E+01
 -2.12749704386320495E+01 -2.12749714810595805E+01 -2.12749725497735689E+01
 -2.12749736454344536E+01 -2.12749747687189910E+01 -2.12749759203204718E+01
 -2.12749771009496556E+01 -2.12749783113351434E+01 -2.12749795522232539E+01
 -2.12749808243792344E+01 -2.12749821285871583E+01 -2.12749834656503936E+01
 -2.12749848363926795E+01 -2.12749862416579631E+01 -2.12749876823107513E+01
 -2.12749891592377303E+01 -2.12749906733468634E+01 -2.12749922255689192E+01
 -2.12749938168576094E+01 -2.12749954481902215E+01 -2.12749971205681767E+01
 -2.12749988350174810E+01 -2.12750005925900503E+01 -2.12750023943626800E+01
 -2.12750042414396034E+01 -2.12750061349520045E+01 -2.12750080760585547E+01
 -2.12750100659469545E+01 -2.12750121058334756E+01 -2.12750141969648716E+01
 -2.12750163406178636E+01 -2.12750185381009587E+01 -2.12750207907543576E+01
 -2.12750230999512837E+01 -2.12750254670981356E+01 -2.12750278936362314E+01
 -2.12750303810415815E+01 -2.12750329308262067E+01 -2.12750355445391257E+01
 -2.12750382237669591E+01 -2.12750409701348211E+01 -2.12750437853069130E+01
 -2.12750466709888322E+01 -2.12750496289259807E+01 -2.12750526609071962E+01
 -2.12750557687637141E+01 -2.12750589543716373E+01 -2.12750622196514705E+01
 -2.12750655665704969E+01 -2.12750689971430766E+01 -2.12750725134316667E+01
 -2.12750761175484406E+01 -2.12750798116561803E+01 -2.12750835979683188E+01
 -2.12750874787526953E+01 -2.12750914563294273E+01 -2.12750955330750671E+01
 -2.12750997114217242E+01 -2.12751039938590232E+01 -2.12751083829366152E+01
 -2.12751128812622277E+01 -2.12751174915069114E+01 -2.12751222164032683E+01
 -2.12751270587483319E+01 -2.12751320214045876E+01 -2.12751371073011555E+01
 -2.12751423194353393E+01 -2.12751476608743033E+01 -2.12751531347557261E+01
 -2.12751587442904686E+01 -2.12751644927629862E+01 -2.12751703835328314E+01
 -2.12751764200377593E+01 -2.12751826057926543E+01 -2.12751889443932960E+01
 -2.12751954395171516E+01 -2.12752020949245448E+01 -2.12752089144611176E+01
 -2.12752159020585268E+01 -2.12752230617367957E+01 -2.12752303976058421E+01
 -2.12752379138667536E+01 -2.12752456148134179E+01 -2.12752535048355185E+01
 -2.12752615884178056E+01 -2.12752698701443919E+01 -2.12752783546981767E+01
 -2.12752870468644524E+01 -2.12752959515312199E+01 -2.12753050736916016E+01
 -2.12753144184452196E+01 -2.12753239910000573E+01 -2.12753337966740901E+01
 -2.12753438408968130E+01 -2.12753541292113191E+01 -2.12753646672752126E+01
 -2.12753754608628434E+01 -2.12753865158668489E+01 -2.12753978382991527E+01
 -2.12754094342932980E+01 -2.12754213101049920E+01 -2.12754334721147096E+01
 -2.12754459268274978E+01 -2.12754586808765751E+01 -2.12754717410218355E+01
 -2.12754851141535184E+01 -2.12754988072919247E+01 -2.12755128275888552E+01
 -2.12755271823286805E+01 -2.12755418789289585E+01 -2.12755569249418954E+01
 -2.12755723280534390E+01 -2.12755880960861710E+01 -2.12756042369970615E+01
 -2.12756207588799313E+01 -2.12756376699643113E+01 -2.12756549786155773E+01
 -2.12756726933349611E+01 -2.12756908227591985E+01 -2.12757093756590798E+01
 -2.12757283609393717E+01 -2.12757477876376981E+01 -2.12757676649224479E+01
 -2.12757880020917263E+01 -2.12758088085714192E+01 -2.12758300939124219E+01
 -2.12758518677882371E+01 -2.12758741399929008E+01 -2.12758969204357058E+01
 -2.12759202191390848E+01 -2.12759440462343967E+01 -2.12759684119556631E+01
 -2.12759933266363248E+01 -2.12760188007021860E+01 -2.12760448446662771E+01
 -2.12760714691207298E+01 -2.12760986847303215E+01 -2.12761265022240913E+01
 -2.12761549323860919E+01 -2.12761839860464015E+01 -2.12762136740697940E+01
 -2.12762440073455288E+01 -2.12762749967744540E+01 -2.12763066532559790E+01
 -2.12763389876738067E+01 -2.12763720108818220E+01 -2.12764057336854329E+01
 -2.12764401668262799E+01 -2.12764753209626249E+01 -2.12765112066479958E+01
 -2.12765478343119518E+01 -2.12765852142340428E+01 -2.12766233565224354E+01
 -2.12766622710839002E+01 -2.12767019675984521E+01 -2.12767424554881828E+01
 -2.12767837438848844E+01 -2.12768258415958833E+01 -2.12768687570693551E+01
 -2.12769124983525089E+01 -2.12769570730533246E+01 -2.12770024882948725E+01
 -2.12770487506693335E+01 -2.12770958661888230E+01 -2.12771438402324122E+01
 -2.12771926774900741E+01 -2.12772423819039602E+01 -2.12772929566061997E+01
 -2.12773444038498134E+01 -2.12773967249416209E+01 -2.12774499201644360E+01
 -2.12775039886990456E+01 -2.12775589285403406E+01 -2.12776147364080437E+01
 -2.12776714076527327E+01 -2.12777289361558317E+01 -2.12777873142250300E+01
 -2.12778465324821831E+01 -2.12779065797453981E+01 -2.12779674429053358E+01
 -2.12780291067917808E+01 -2.12780915540367133E+01 -2.12781547649246363E+01
 -2.12782187172402608E+01 -2.12782833861016094E+01 -2.12783487437884737E+01
 -2.12784147595593325E+01 -2.12784813994581761E+01 -2.12785486261102683E+01
 -2.12786163985084968E+01 -2.12786846717860705E+01 -2.12787533969762741E+01
 -2.12788225207626134E+01 -2.12788919852109899E+01 -2.12789617274902341E+01
 -2.12790316795760575E+01 -2.12791017679409116E+01 -2.12791719132236246E+01
 -2.12792420298861593E+01 -2.12793120258474495E+01 -2.12793818021002039E+01
 -2.12794512523074886E+01 -2.12795202623762734E+01 -2.12795887100096905E+01
 -2.12796564642357247E+01 -2.12797233849097971E+01 -2.12797893221931531E+01
 -2.12798541160021877E+01 -2.12799175954298398E+01 -2.12799795781370200E+01
 -2.12800398697116080E+01 -2.12800982629957645E+01 -2.12801545373752745E+01
 -2.12802084580371016E+01 -2.12802597751835059E+01 -2.12803082232099037E+01
 -2.12803535198378988E+01 -2.12803953652059832E+01 -2.12804334409123683E+01
 -2.12804674090097201E+01 -2.12804969109492568E+01 -2.12805215664713891E+01
 -2.12805409724390024E+01 -2.12805547016142995E+01 -2.12805623013717522E+01
 -2.12805632923491537E+01 -2.12805571670282170E+01 -2.12805433882475903E+01
 -2.12805213876395349E+01 -2.12804905639899893E+01 -2.12804502815173322E+01
 -2.12803998680677005E+01 -2.12803386132173067E+01 -2.12802657662875987E+01
 -2.12801805342581396E+01 -2.12800820795799694E+01 -2.12799695178830817E+01
 -2.12798419155703584E+01 -2.12796982872981992E+01 -2.12795375933320798E+01
 -2.12793587367785761E+01 -2.12791605606813938E+01 -2.12789418449809382E+01
 -2.12787013033277326E+01 -2.12784375797452796E+01 -2.12781492451340242E+01
 -2.12778347936115679E+01 -2.12774926386801333E+01 -2.12771211092145798E+01
 -2.12767184452629614E+01 -2.12762827936532410E+01 -2.12758122033945760E+01
 -2.12753046208672281E+01 -2.12747578847929333E+01 -2.12741697209728819E+01
 -2.12735377367871621E+01 -2.12728594154454562E+01 -2.12721321099767771E+01
 -2.12713530369500923E+01 -2.12705192699141321E+01 -2.12696277325453060E+01
 -2.12686751914922887E+01 -2.12676582489056116E+01 -2.12665733346408601E+01
 -2.12654166981219817E+01 -2.12641843998525104E+01 -2.12628723025630464E+01
 -2.12614760619787369E+01 -2.12599911171970568E+01 -2.12584126806588891E+01
 -2.12567357277002600E+01 -2.12549549856710733E+01 -2.12530649226054464E+01
 -2.12510597354281359E+01 -2.12489333376858482E+01 -2.12466793467830968E+01
 -2.12442910707137393E+01 -2.12417614942674966E+01 -2.12390832647012395E+01
 -2.12362486768565581E+01 -2.12332496577113297E+01 -2.12300777503496860E+01
 -2.12267240973359321E+01 -2.12231794234793547E+01 -2.12194340179757219E+01
 -2.12154777159133907E+01 -2.12112998791309693E+01 -2.12068893764161537E+01
 -2.12022345630345441E+01 -2.11973232595795480E+01 -2.11921427301351137E+01
 -2.11866796597447831E+01 -2.11809201311815798E+01 -2.11748496010164935E+01
 -2.11684528749827905E+01 -2.11617140826390475E+01 -2.11546166513330398E+01
 -2.11471432794739513E+01 -2.11392759091218778E+01 -2.11309956979080624E+01
 -2.11222829903025868E+01 -2.11131172882505282E+01 -2.11034772212022901E+01
 -2.10933405155687659E+01 -2.10826839636375105E+01 -2.10714833919918938E+01
 -2.10597136294821752E+01 -2.10473484748039148E+01 -2.10343606637471083E+01
 -2.10207218361876258E+01 -2.10064025029017394E+01 -2.09913720122936560E+01
 -2.09755985171370192E+01 -2.09590489414418393E+01 -2.09416889475708921E+01
 -2.09234829037420731E+01 -2.09043938520672334E+01 -2.08843834772925803E+01
 -2.08634120764214543E+01 -2.08414385294170792E+01 -2.08184202712004414E+01
 -2.07943132651776317E+01 -2.07690719785507127E+01 -2.07426493596874373E+01
 -2.07149968178473891E+01 -2.06860642055858186E+01 -2.06557998041808766E+01
 -2.06241503124562087E+01 -2.05910608393978372E+01 -2.05564749009926935E+01
 -2.05203344217455239E+01 -2.04825797413621871E+01 -2.04431496271178901E+01
 -2.04019812924646011E+01 -2.03590104224591499E+01 -2.03141712066343771E+01
 -2.02673963799685772E+01 -2.02186172726434386E+01 -2.01677638693162464E+01
 -2.01147648786679198E+01 -2.00595478140239791E+01 -2.00020390858785468E+01
 -1.99421641071867057E+01 -1.98798474123192506E+01 -1.98150127906062004E+01
 -1.97475834354168214E+01 -1.96774821097528232E+01 -1.96046313293400587E+01
 -1.95289535642253540E+01 -1.94503714598824686E+01 -1.93688080788326715E+01
 -1.92841871637709730E+01 -1.91964334231655123E+01 -1.91054728402636975E+01
 -1.90112330063842236E+01 -1.89136434793089236E+01 -1.88126361675057581E+01
 -1.87081457407983045E+01 -1.86001100679825804E+01 -1.84884706817236264E+01
 -1.83731732708780058E+01 -1.82541682001856280E+01 -1.81314110570307641E+01
 -1.80048632246824489E+01 -1.78744924811089270E+01 -1.77402736221092603E+01
 -1.76021891071057155E+01 -1.74602297255079009E+01 -1.73143952810858117E+01
 -1.71646952912668134E+01 -1.70111496977248144E+01 -1.68537895840240175E+01
 -1.66926578954625739E+01 -1.65278101555720660E+01 -1.63593151730514457E+01
 -1.61872557321363608E+01 -1.60117292586539506E+01 -1.58328484531407643E+01
 -1.56507418815029968E+01 -1.54655545126699732E+01 -1.52774481914771005E+01
 -1.50866020335771633E+01 -1.48932127272420054E+01 -1.46974947243878269E+01
 -1.44996802994445133E+01 -1.43000194493761033E+01 -1.40987796001241321E+01
 -1.38962450725634561E+01 -1.36927162425229696E+01 -1.34885083011149494E+01
 -1.32839494787015369E+01 -1.30793785312872561E+01 -1.28751411923538459E+01
 -1.26715851539265074E+01 -1.24690529436035025E+01 -1.22678717971879827E+01
 -1.20683392867857666E+01 -1.18707030639750410E+01 -1.16751296627565004E+01
 -1.14821468221306571E+01 -1.12830642819570386E+01 -1.10722820489616467E+01
 -1.08661318224574828E+01 -1.06645646632162592E+01 -1.04677963739532807E+01
 -1.02760240449145588E+01 -1.00894571307521392E+01 -9.90831941412327133E+00
 -9.73284643274537054E+00 -9.56327998768641052E+00 -9.39986080481508424E+00
 -9.24282001161530253E+00 -9.09236981653755905E+00 -8.94869362860408657E+00
 -8.81193583085259746E+00 -8.68219197656731190E+00 -8.55950918940362726E+00
 -8.44405752331877046E+00 -8.33187217532870328E+00 -8.27936289155439908E+00
 -8.20431595832425842E+00 -8.11499058269930096E+00 -8.03132924822882721E+00
 -7.95168514793052861E+00 -7.87518855573119758E+00 -7.80095535242173543E+00
 -7.72804353236458663E+00 -7.65547696744400774E+00 -7.58228440168190509E+00
 -7.50755240182678474E+00 -7.43049496824275657E+00 -7.35054327407222807E+00
 -7.26745963705042630E+00 -7.18148057789936001E+00 -7.09349472297778938E+00
 -7.00519506115247292E+00 -6.91773673604794315E+00 -6.83115169284916757E+00
 -6.74541864176148742E+00 -6.66051647106531952E+00 -6.57642480356425541E+00
 -6.49312473438472448E+00 -6.41060231272838976E+00 -6.32881901817223191E+00
 -6.24944906621800111E+00 -6.17185593264368748E+00 -6.09518359076662719E+00
 -6.01946457607246632E+00 -5.94468671786323899E+00 -5.87083823875150479E+00
 -5.79790752004829901E+00 -5.72588309812249996E+00 -5.65475366103521093E+00
 -5.58450804539182499E+00 -5.51513523334988598E+00 -5.44662434997385070E+00
 -5.37896466057553546E+00 -5.31214556786377390E+00 -5.24615661024258806E+00
 -5.18098745910438740E+00 -5.11662791687798091E+00 -5.05306791494713980E+00
 -4.99029751170323888E+00 -4.92830689066056138E+00 -4.86708635864131445E+00
 -4.80662634402414835E+00 -4.74691739504343424E+00 -4.68795017815091519E+00
 -4.62971547640956427E+00 -4.57220418786342275E+00 -4.51540732419697655E+00
 -4.45931600903022929E+00 -4.40392147658796596E+00 -4.34921507023406217E+00
 -4.29518824107358466E+00 -4.24183254657616526E+00 -4.18913964922255744E+00
 -4.13710131517472401E+00 -4.08570941296636114E+00 -4.03495591221361316E+00
 -3.98483288234539801E+00 -3.93533249135181284E+00 -3.88644700455044445E+00
 -3.83816878336981482E+00 -3.79049028414931755E+00 -3.74340405695552558E+00
 -3.69690274441731948E+00 -3.65097908057323384E+00 -3.60562588972973241E+00
 -3.56083608533760909E+00 -3.51660266888315887E+00 -3.47291872879341357E+00
 -3.42977743935511992E+00 -3.38717205964755719E+00 -3.34509593248860559E+00
 -3.30354248339410050E+00 -3.26250521955018913E+00 -3.22197772879863420E+00
 -3.18195367863460632E+00 -3.14242681521712175E+00 -3.10339096239175039E+00
 -3.06484002072556905E+00 -3.02676796655386182E+00 -2.98916885103911589E+00
 -2.95203679924126261E+00 -2.91536600919990319E+00 -2.87915075102754736E+00
 -2.84338536601433445E+00 -2.80806426574397117E+00 -2.77318193122044887E+00
 -2.73873291200561297E+00 -2.70471182536944710E+00 -2.67111335545066719E+00
 -2.63793225242251506E+00 -2.60516333167263126E+00 -2.57280147299242667E+00
 -2.54084161977734491E+00 -2.50927877823681111E+00 -2.47810801661368707E+00
 -2.44732446441392737E+00 -2.41692331164554775E+00 -2.38689980806698099E+00
 -2.35724926244486133E+00 -2.32796704182108716E+00 -2.29904857078892988E+00
 -2.27048933077802007E+00 -2.24228485934845878E+00 -2.21443074949343455E+00
 -2.18692264895073851E+00 -2.15975625952268535E+00 -2.13292733640445986E+00
 -2.10643168752097676E+00 -2.08026517287177537E+00 -2.05442370388419882E+00
 -2.02890324277452594E+00 -2.00369980191709640E+00 -1.97880944322205621E+00
 -1.95422827752193373E+00 -1.92995246396160458E+00 -1.90597820939757789E+00
 -1.88230176780534730E+00 -1.85891943969405227E+00 -1.83582757152844289E+00
 -1.81302255515802524E+00 -1.79050082725329518E+00 -1.76825886874895088E+00
 -1.74629320429406198E+00 -1.72460040170904305E+00 -1.70317707144936947E+00
 -1.68201986607597065E+00 -1.66112547973219282E+00 -1.64049064762726404E+00
 -1.62011214552616600E+00 -1.59998678924584681E+00 -1.58011143415770294E+00
 -1.56048297469622876E+00 -1.54109834387376510E+00 -1.52195451280128924E+00
 -1.50304849021514975E+00 -1.48437732200968542E+00 -1.46593809077564563E+00
 -1.44772791534473111E+00 -1.42974395034102653E+00 -1.41198338573492443E+00
 -1.39444344640339790E+00 -1.37712139169639491E+00 -1.36001451500861092E+00
 -1.34312014335658558E+00 -1.32643563696104705E+00 -1.30995838883445770E+00
 -1.29368582437367330E+00 -1.27761540095765036E+00 -1.26174460755018258E+00
 -1.24607096430753383E+00 -1.23059202219098118E+00 -1.21530536258414346E+00
 -1.20020859691507575E+00 -1.18529936628305865E+00 -1.17057534109001904E+00
 -1.15603422067653328E+00 -1.14167373296234276E+00 -1.12749163409135522E+00
 -1.11348570808102920E+00 -1.09965376647613544E+00 -1.08599364800680376E+00
 -1.07250321825083339E+00 -1.05918036930036985E+00 -1.04602301943374476E+00
 -1.03302911278939336E+00 -1.02019661904395487E+00 -1.00752353309503495E+00
 -9.95007874747901533E-01 -9.82647688406094955E-01 -9.70441042765858186E-01
 -9.58386030514372655E-01 -9.46480768031751518E-01 -9.34723395096712317E-01
 -9.23112074595931476E-01 -9.11644992236982921E-01 -9.00320356264869170E-01
 -8.89136397182055283E-01 -8.78091367471982132E-01 -8.67183541326026375E-01
 -8.56411214373831720E-01 -8.45772703417014049E-01 -8.35266346166154583E-01
 -8.24890500981067532E-01 -8.14643546614301273E-01 -8.04523881957807774E-01
                             </PP_LOCAL> 
<PP_NONLOCAL> 
 <PP_BETA.1 type="real" size="   999" angular_momentum="0" columns="3" cutoff_radius_index="   836" norm_conserving_radius="    1.903803" label= "3S">
  2.32100374565080318E-04  2.35019837872839273E-04  2.37976023508099967E-04
  2.40969393380869901E-04  2.44000415211269577E-04  2.47069562602613411E-04
  2.50177315115411873E-04  2.53324158342303871E-04  2.56510583983930924E-04
  2.59737089925767743E-04  2.63004180315916066E-04  2.66312365643879968E-04
  2.69662162820330455E-04  2.73054095257873534E-04  2.76488692952835873E-04
  2.79966492568075665E-04  2.83488037516838737E-04  2.87053878047667456E-04
  2.90664571330377858E-04  2.94320681543119888E-04  2.98022779960529431E-04
  3.01771445042992470E-04  3.05567262527029978E-04  3.09410825516820680E-04
  3.13302734576875351E-04  3.17243597825874726E-04  3.21234031031690558E-04
  3.25274657707599988E-04  3.29366109209710547E-04  3.33509024835611928E-04
  3.37704051924265863E-04  3.41951845957155190E-04  3.46253070660703722E-04
  3.50608398109984623E-04  3.55018508833734555E-04  3.59484091920686099E-04
  3.64005845127240036E-04  3.68584474986490928E-04  3.73220696918624164E-04
  3.77915235342702997E-04  3.82668823789858448E-04  3.87482205017906217E-04
  3.92356131127403703E-04  3.97291363679166834E-04  4.02288673813266788E-04
  4.07348842369520143E-04  4.12472660009498054E-04  4.17660927340067999E-04
  4.22914455038490269E-04  4.28234063979088676E-04  4.33620585361511770E-04
  4.39074860840611161E-04  4.44597742657951113E-04  4.50190093774972485E-04
  4.55852788007833707E-04  4.61586710163943760E-04  4.67392756180216656E-04
  4.73271833263063193E-04  4.79224860030142742E-04  4.85252766653900989E-04
  4.91356495006908377E-04  4.97536998809031388E-04  5.03795243776452499E-04
  5.10132207772564942E-04  5.16548880960767255E-04  5.23046265959175140E-04
  5.29625377997284879E-04  5.36287245074603932E-04  5.43032908121277545E-04
  5.49863421160737731E-04  5.56779851474393573E-04  5.63783279768397677E-04
  5.70874800342508382E-04  5.78055521261074839E-04  5.85326564526177377E-04
  5.92689066252938116E-04  6.00144176847043349E-04  6.07693061184496350E-04
  6.15336898793630849E-04  6.23076884039415967E-04  6.30914226310075278E-04
  6.38850150206057496E-04  6.46885895731382225E-04  6.55022718487392741E-04
  6.63261889868947251E-04  6.71604697263073467E-04  6.80052444250127570E-04
  6.88606450807480023E-04  6.97268053515764648E-04  7.06038605767722637E-04
  7.14919477979669357E-04  7.23912057805627205E-04  7.33017750354148260E-04
  7.42237978407863709E-04  7.51574182645798738E-04  7.61027821868477303E-04
  7.70600373225864685E-04  7.80293332448174070E-04  7.90108214079575876E-04
  8.00046551714851326E-04  8.10109898239013597E-04  8.20299826069952488E-04
  8.30617927404125899E-04  8.41065814465343474E-04  8.51645119756680750E-04
  8.62357496315555830E-04  8.73204617972023851E-04  8.84188179610312570E-04
  8.95309897433650996E-04  9.06571509232431943E-04  9.17974774655739407E-04
  9.29521475486299415E-04  9.41213415918885693E-04  9.53052422842226642E-04
  9.65040346124462875E-04  9.77179058902187276E-04  9.89470457873127540E-04
  1.00191646359250753E-03  1.01451902077313665E-03  1.02728009858927606E-03
  1.04020169098432004E-03  1.05328581698235584E-03  1.06653452100363916E-03
  1.07994987318403525E-03  1.09353396969848280E-03  1.10728893308852171E-03
  1.12121691259394396E-03  1.13532008448861510E-03  1.14960065242051862E-03
  1.16406084775608166E-03  1.17870292992882405E-03  1.19352918679240015E-03
  1.20854193497807916E-03  1.22374352025671879E-03  1.23913631790529589E-03
  1.25472273307805030E-03  1.27050520118228297E-03  1.28648618825889880E-03
  1.30266819136772515E-03  1.31905373897767933E-03  1.33564539136184776E-03
  1.35244574099752557E-03  1.36945741297129597E-03  1.38668306538920392E-03
  1.40412538979208489E-03  1.42178711157612127E-03  1.43967099041868705E-03
  1.45777982070955129E-03  1.47611643198749935E-03  1.49468368938245229E-03
  1.51348449406315069E-03  1.53252178369045326E-03  1.55179853287635639E-03
  1.57131775364877319E-03  1.59108249592217047E-03  1.61109584797411356E-03
  1.63136093692781300E-03  1.65188092924073893E-03  1.67265903119937984E-03
  1.69369848942022699E-03  1.71500259135705878E-03  1.73657466581460555E-03
  1.75841808346867629E-03  1.78053625739282308E-03  1.80293264359163803E-03
  1.82561074154075835E-03  1.84857409473364776E-03  1.87182629123527444E-03
  1.89537096424274593E-03  1.91921179265298718E-03  1.94335250163758366E-03
  1.96779686322481754E-03  1.99254869688906058E-03  2.01761187014755762E-03
  2.04299029916472658E-03  2.06868794936406093E-03  2.09470883604771481E-03
  2.12105702502389613E-03  2.14773663324214917E-03  2.17475182943661655E-03
  2.20210683477740921E-03  2.22980592353015129E-03  2.25785342372383183E-03
  2.28625371782706019E-03  2.31501124343280480E-03  2.34413049395178858E-03
  2.37361601931454632E-03  2.40347242668236764E-03  2.43370438116714480E-03
  2.46431660656029616E-03  2.49531388607085155E-03  2.52670106307280578E-03
  2.55848304186190442E-03  2.59066478842191403E-03  2.62325133120055228E-03
  2.65624776189518109E-03  2.68965923624835167E-03  2.72349097485339187E-03
  2.75774826397009922E-03  2.79243645635071387E-03  2.82756097207626910E-03
  2.86312729940345302E-03  2.89914099562214216E-03  2.93560768792370088E-03
  2.97253307428021508E-03  3.00992292433478748E-03  3.04778308030300782E-03
  3.08611945788578356E-03  3.12493804719364511E-03  3.16424491368267431E-03
  3.20404619910221247E-03  3.24434812245446734E-03  3.28515698096621149E-03
  3.32647915107269583E-03  3.36832108941392599E-03  3.41068933384349859E-03
  3.45359050445007750E-03  3.49703130459177308E-03  3.54101852194348057E-03
  3.58555902955743190E-03  3.63065978693706418E-03  3.67632784112438288E-03
  3.72257032780103601E-03  3.76939447240320479E-03  3.81680759125052789E-03
  3.86481709268923085E-03  3.91343047824961772E-03  3.96265534381812657E-03
  4.01249938082412581E-03  4.06297037744165167E-03  4.11407621980621960E-03
  4.16582489324698706E-03  4.21822448353437445E-03  4.27128317814339745E-03
  4.32500926753287291E-03  4.37941114644075247E-03  4.43449731519566636E-03
  4.49027638104504499E-03  4.54675705949990436E-03  4.60394817569653378E-03
  4.66185866577533813E-03  4.72049757827699805E-03  4.77987407555618884E-03
  4.83999743521309166E-03  4.90087705154289635E-03  4.96252243700353451E-03
  5.02494322370187953E-03  5.08814916489861314E-03  5.15215013653203772E-03
  5.21695613876105822E-03  5.28257729752753136E-03  5.34902386613830393E-03
  5.41630622686711197E-03  5.48443489257665045E-03  5.55342050836102243E-03
  5.62327385320884453E-03  5.69400584168727481E-03  5.76562752564720518E-03
  5.83815009594990802E-03  5.91158488421539112E-03  5.98594336459271244E-03
  6.06123715555261650E-03  6.13747802170262931E-03  6.21467787562504648E-03
  6.29284877973800959E-03  6.37200294817995890E-03  6.45215274871781697E-03
  6.53331070467914714E-03  6.61548949690860151E-03  6.69870196574898560E-03
  6.78296111304721883E-03  6.86828010418551183E-03  6.95467227013809794E-03
  7.04215110955380610E-03  7.13073029086484442E-03  7.22042365442203838E-03
  7.31124521465701793E-03  7.40320916227145236E-03  7.49632986645393327E-03
  7.59062187712466162E-03  7.68609992720835269E-03  7.78277893493576310E-03
  7.88067400617408279E-03  7.97980043678669058E-03  8.08017371502252855E-03
  8.18180952393552686E-03  8.28472374383447049E-03  8.38893245476358788E-03
  8.49445193901442186E-03  8.60129868366919445E-03  8.70948938317616002E-03
  8.81904094195738210E-03  8.92997047704920111E-03  9.04229532077596536E-03
  9.15603302345733769E-03  9.27120135614961823E-03  9.38781831342154829E-03
  9.50590211616498225E-03  9.62547121444089736E-03  9.74654429036116848E-03
  9.86914026100652562E-03  9.99327828138126331E-03  1.01189777474049968E-02
  1.02462582989420407E-02  1.03751398228689208E-02  1.05056424561802992E-02
  1.06377865891340694E-02  1.07715928684358666E-02  1.09070822004636581E-02
  1.10442757545328157E-02  1.11831949662022020E-02  1.13238615406218504E-02
  1.14662974559226454E-02  1.16105249666485760E-02  1.17565666072322415E-02
  1.19044451955137923E-02  1.20541838363043240E-02  1.22058059249938143E-02
  1.23593351512045653E-02  1.25147955024903692E-02  1.26722112680823056E-02
  1.28316070426814297E-02  1.29930077302992004E-02  1.31564385481460992E-02
  1.33219250305690855E-02  1.34894930330385129E-02  1.36591687361850844E-02
  1.38309786498875681E-02  1.40049496174117025E-02  1.41811088196012666E-02
  1.43594837791215530E-02  1.45401023647563059E-02  1.47229927957584980E-02
  1.49081836462557123E-02  1.50957038497109459E-02  1.52855827034392312E-02
  1.54778498731810866E-02  1.56725353977333511E-02  1.58696696936380111E-02
  1.60692835599300955E-02  1.62714081829449103E-02  1.64760751411857607E-02
  1.66833164102526965E-02  1.68931643678330440E-02  1.71056517987546938E-02
  1.73208119001025673E-02  1.75386782863994825E-02  1.77592849948518365E-02
  1.79826664906611866E-02  1.82088576724023787E-02  1.84378938774691532E-02
  1.86698108875880606E-02  1.89046449344014121E-02  1.91424327051203484E-02
  1.93832113482487293E-02  1.96270184793786925E-02  1.98738921870590182E-02
  2.01238710387369076E-02  2.03769940867742326E-02  2.06333008745392885E-02
  2.08928314425747448E-02  2.11556263348428829E-02  2.14217266050491795E-02
  2.16911738230449215E-02  2.19640100813102181E-02  2.22402780015179963E-02
  2.25200207411802682E-02  2.28032820003777267E-02  2.30901060285733407E-02
  2.33805376315114680E-02  2.36746221782031425E-02  2.39724056079989138E-02
  2.42739344377501352E-02  2.45792557690596540E-02  2.48884172956236362E-02
  2.52014673106647179E-02  2.55184547144584328E-02  2.58394290219537102E-02
  2.61644403704884287E-02  2.64935395276017227E-02  2.68267778989436344E-02
  2.71642075362837736E-02  2.75058811456200432E-02  2.78518520953884435E-02
  2.82021744247757146E-02  2.85569028521354511E-02  2.89160927835095775E-02
  2.92798003212559922E-02  2.96480822727838919E-02  3.00209961593982666E-02
  3.03986002252544310E-02  3.07809534464244146E-02  3.11681155400764832E-02
  3.15601469737688059E-02  3.19571089748592330E-02  3.23590635400321583E-02
  3.27660734449440397E-02  3.31782022539892363E-02  3.35955143301871831E-02
  3.40180748451927931E-02  3.44459497894313571E-02  3.48792059823596345E-02
  3.53179110828544043E-02  3.57621335997302600E-02  3.62119429023881473E-02
  3.66674092315962402E-02  3.71286037104046202E-02  3.75955983551956655E-02
  3.80684660868713248E-02  3.85472807421797167E-02  3.90321170851815960E-02
  3.95230508188595744E-02  4.00201585968708723E-02  4.05235180354459740E-02
  4.10332077254343883E-02  4.15493072444997821E-02  4.20718971694659105E-02
  4.26010590888153962E-02  4.31368756153429275E-02  4.36794303989648594E-02
  4.42288081396872909E-02  4.47850946007340156E-02  4.53483766218364462E-02
  4.59187421326880188E-02  4.64962801665638123E-02  4.70810808741084566E-02
  4.76732355372936761E-02  4.82728365835477166E-02  4.88799776000586952E-02
  4.94947533482536783E-02  5.01172597784557070E-02  5.07475940447209839E-02
  5.13858545198579084E-02  5.20321408106306019E-02  5.26865537731485561E-02
  5.33491955284449704E-02  5.40201694782456374E-02  5.46995803209307588E-02
  5.53875340676917710E-02  5.60841380588856658E-02  5.67895009805888043E-02
  5.75037328813523263E-02  5.82269451891621048E-02  5.89592507286050005E-02
  5.97007637382436090E-02  6.04515998882025965E-02  6.12118762979681902E-02
  6.19817115544035735E-02  6.27612257299827031E-02  6.35505404012447483E-02
  6.43497786674715466E-02  6.51590651695908157E-02  6.59785261093072811E-02
  6.68082892684645074E-02  6.76484840286395994E-02  6.84992413909736170E-02
  6.93606939962401192E-02  7.02329761451539608E-02  7.11162238189240181E-02
  7.20105747000511914E-02  7.29161681933747918E-02  7.38331454473704213E-02
  7.47616493757006229E-02  7.57018246790227972E-02  7.66538178670550518E-02
  7.76177772809042571E-02  7.85938531156578635E-02  7.95821974432429080E-02
  8.05829642355541664E-02  8.15963093878547263E-02  8.26223907424516735E-02
  8.36613681126487096E-02  8.47134033069796843E-02  8.57786601537246646E-02
  8.68573045257118453E-02  8.79495043654077574E-02  8.90554297102982562E-02
  9.01752527185635672E-02  9.13091476950494974E-02  9.24572911175376294E-02
  9.36198616633174413E-02  9.47970402360624464E-02  9.59890099930134633E-02
  9.71959563724717479E-02  9.84180671216036002E-02  9.96555323245604807E-02
  1.00908544430916056E-01  1.02177298284422874E-01  1.03461991152092064E-01
  1.04762822753597051E-01  1.06079995291004842E-01  1.07413713478837214E-01
  1.08764184574463185E-01  1.10131618408826501E-01  1.11516227417509148E-01
  1.12918226672133568E-01  1.14337833912106265E-01  1.15775269576703782E-01
  1.17230756837503849E-01  1.18704521631163615E-01  1.20196792692546323E-01
  1.21707801588198758E-01  1.23237782750181116E-01  1.24786973510250226E-01
  1.26355614134398109E-01  1.27943947857748375E-01  1.29552220919809002E-01
  1.31180682600085446E-01  1.32829585254053417E-01  1.34499184349492984E-01
  1.36189738503184304E-01  1.37901509517965648E-01  1.39634762420154823E-01
  1.41389765497332676E-01  1.43166790336490657E-01  1.44966111862540714E-01
  1.46788008377188028E-01  1.48632761598165963E-01  1.50500656698831725E-01
  1.52391982348123123E-01  1.54307030750872792E-01  1.56246097688481439E-01
  1.58209482559944853E-01  1.60197488423235529E-01  1.62210422037033647E-01
  1.64248593902807050E-01  1.66312318307235196E-01  1.68401913364974287E-01
  1.70517701061758842E-01  1.72660007297837204E-01  1.74829161931733229E-01
  1.77025498824330524E-01  1.79249355883274231E-01  1.81501075107681181E-01
  1.83781002633154195E-01  1.86089488777091555E-01  1.88426888084283761E-01
  1.90793559372788690E-01  1.93189865780076270E-01  1.95616174809430859E-01
  1.98072858376602601E-01  2.00560292856693828E-01  2.03078859131268802E-01
  2.05628942635673662E-01  2.08210933406551058E-01  2.10825226129534526E-01
  2.13472220187105988E-01  2.16152319706599039E-01  2.18865933608328317E-01
  2.21613475653825637E-01  2.24395364494161670E-01  2.27212023718329326E-01
  2.30063881901666434E-01  2.32951372654290695E-01  2.35874934669519365E-01
  2.38835011772246697E-01  2.41832052967246219E-01  2.44866512487366544E-01
  2.47938849841585762E-01  2.51049529862887477E-01  2.54199022755921378E-01
  2.57387804144404375E-01  2.60616355118220955E-01  2.63885162280176888E-01
  2.67194717792355207E-01  2.70545519422026148E-01  2.73938070587052884E-01
  2.77372880400738819E-01  2.80850463716052767E-01  2.84371341169168235E-01
  2.87936039222250140E-01  2.91545090205414081E-01  2.95199032357783442E-01
  2.98898409867564996E-01  3.02643772911055708E-01  3.06435677690491626E-01
  3.10274686470645211E-01  3.14161367614068598E-01  3.18096295614880176E-01
  3.22080051130977651E-01  3.26113221014566745E-01  3.30196398340872777E-01
  3.34330182434911749E-01  3.38515178896174551E-01  3.42751999621084602E-01
  3.47041262823069518E-01  3.51383593050085818E-01  3.55779621199423968E-01
  3.60229984529611913E-01  3.64735326669226700E-01  3.69296297622410008E-01
  3.73913553770874818E-01  3.78587757872180797E-01  3.83319579054035242E-01
  3.88109692804376460E-01  3.92958780956967568E-01  3.97867531672229213E-01
  4.02836639413012731E-01  4.07866804915004599E-01  4.12958735151436607E-01
  4.18113143291756750E-01  4.23330748653894640E-01  4.28612276649743884E-01
  4.33958458723448348E-01  4.39370032282077216E-01  4.44847740618229792E-01
  4.50392332824100405E-01  4.56004563696506549E-01  4.61685193632348612E-01
  4.67434988513950600E-01  4.73254719583694250E-01  4.79145163307333588E-01
  4.85107101225334736E-01  4.91141319791564224E-01  4.97248610198596119E-01
  5.03429768188888294E-01  5.09685593851016638E-01  5.16016891400130184E-01
  5.22424468941742104E-01  5.28909138217908970E-01  5.35471714334829541E-01
  5.42113015470810033E-01  5.48833862563517849E-01  5.55635078975362684E-01
  5.62517490135802545E-01  5.69481923159296910E-01  5.76529206437569663E-01
  5.83660169204770929E-01  5.90875641074053548E-01  5.98176451544005117E-01
  6.05563429473297776E-01  6.13037402521825703E-01  6.20599196556522070E-01
  6.28249635019948127E-01  6.35989538259654097E-01  6.43819722816203144E-01
  6.51741000667660275E-01  6.59754178428216265E-01  6.67860056498516208E-01
  6.76059428165144527E-01  6.84353078646570911E-01  6.92741784082763101E-01
  7.01226310465504321E-01  7.09807412506337720E-01  7.18485832438902960E-01
  7.27262298752260339E-01  7.36137524851670499E-01  7.45112207643101598E-01
  7.54187026037591135E-01  7.63362639371389817E-01  7.72639685737650295E-01
  7.82018780225223864E-01  7.91500513059929411E-01  8.01085447643473336E-01
  8.10774118484976047E-01  8.20567029019858118E-01  8.30464649310613923E-01
  8.40467413623782633E-01  8.50575717877203430E-01  8.60789916951392731E-01
  8.71110321858662551E-01  8.81537196763352848E-01  8.92070755846305241E-01
  9.02711160006470226E-01  9.13458513392279570E-01  9.24312859755197058E-01
  9.35274178617582330E-01  9.46342381246793596E-01  9.57517306427199455E-01
  9.68798716021532336E-01  9.80186290312807351E-01  9.91679623117840747E-01
  1.00327821666313199E+00  1.01498147621373480E+00  1.02678870444555126E+00
  1.03869909555135043E+00  1.05071172907066379E+00  1.06282556343362677E+00
  1.07503942920875484E+00  1.08735202204462533E+00  1.09976189529542223E+00
  1.11226745232037771E+00  1.12486693844724406E+00  1.13755843259008493E+00
  1.15033983851192034E+00  1.16320887572306475E+00  1.17616307000635745E+00
  1.18919974356098956E+00  1.20231600475719413E+00  1.21550873749472110E+00
  1.22877459015887669E+00  1.24210996416876385E+00  1.25551100211350319E+00
  1.26897357547340262E+00  1.28249327192444129E+00  1.29606538222604617E+00
  1.30968488669388061E+00  1.32334644126138756E+00  1.33704436313610397E+00
  1.35077261605912669E+00  1.36452479517892122E+00  1.37829411155371107E+00
  1.39207337630000794E+00  1.40585498440849466E+00  1.41963089825250699E+00
  1.43339263081872614E+00  1.44713122869447153E+00  1.46083725485115612E+00
  1.47450077126908496E+00  1.48811132145483738E+00  1.50165791290900819E+00
  1.51512899960910397E+00  1.52851246457993684E+00  1.54179560263189952E+00
  1.55496510335610649E+00  1.56800703447453493E+00  1.58090682565297280E+00
  1.59364925289486536E+00  1.60621842364495349E+00  1.61859776274293132E+00
  1.63076999937931810E+00  1.64271715521808637E+00  1.65442053386358201E+00
  1.66586071186284990E+00  1.67701753144729926E+00  1.68787009523274345E+00
  1.69839676311108123E+00  1.70857515158118600E+00  1.71838213578130672E+00
  1.72779385449993428E+00  1.73678571845649166E+00  1.74533242215736473E+00
  1.75340795964633611E+00  1.76098564448143113E+00  1.76803813428208523E+00
  1.77453746020135084E+00  1.78045506168712220E+00  1.78576182690390950E+00
  1.79042813919210397E+00  1.79442392994464694E+00  1.79771873828111572E+00
  1.80028177789612065E+00  1.80208201145201041E+00  1.80308823287490760E+00
  1.80326915789740383E+00  1.80259352317043975E+00  1.80103019424038524E+00
  1.79854828265471789E+00  1.79511727242058150E+00  1.79070715599544017E+00
  1.78528857992745360E+00  1.77883300020913748E+00  1.77131284733508410E+00
  1.76270170097193413E+00  1.75297447406040985E+00  1.74210760607023407E+00
  1.73007926502009624E+00  1.71686955775644234E+00  1.70246074785694734E+00
  1.68683748038729520E+00  1.66998701259381543E+00  1.65189944946020173E+00
  1.63256798289490379E+00  1.61198913314767256E+00  1.59016299088075219E+00
  1.56709345814343903E+00  1.54278848632027121E+00  1.51726030894465547E+00
  1.49052566709347678E+00  1.46260602490657265E+00  1.43352777261010345E+00
  1.40332241426758819E+00  1.37202673733899960E+00  1.33968296099942763E+00
  1.30633886005697208E+00  1.27204786121484470E+00  1.23686910835024166E+00
  1.20086749343721144E+00  1.16411364970744158E+00  1.12668390363896487E+00
  1.08866018238031836E+00  1.05012987325566587E+00  1.01118563205300904E+00
  9.71925136869804751E-01  9.32450784374836528E-01  8.92869325437967931E-01
  8.53291437176871281E-01  8.13831228568669185E-01  7.74605676872767379E-01
  7.35733992209430254E-01  6.97336907740394030E-01  6.59535893011802710E-01
  6.22452288160695533E-01  5.86206356877668977E-01  5.50916256293926154E-01
  5.16696922367210987E-01  4.83658869939801173E-01  4.51906907512064970E-01
  4.21538768015533416E-01  3.92643658599759304E-01  3.65300734790805715E-01
  3.39577507602737583E-01  3.15528196305230269E-01  2.93192044830429654E-01
  2.72591626621084049E-01  2.53731171096780894E-01  2.36594955172553051E-01
  2.21145815601539231E-01  2.07323852515618745E-01  1.95045411548412068E-01
  1.84202451429705677E-01  1.74662425954703465E-01  1.66268833691205042E-01
  1.58842615549120575E-01  1.52184609189022907E-01  1.46079299943241453E-01
  1.40300140236690019E-01  1.34616743298810432E-01  1.28804292336335058E-01
  1.22655543715683518E-01  1.15995842982773267E-01  1.08701617191174785E-01
  1.00722858016506739E-01  9.21101697569656347E-02  8.30470257111025623E-02
  7.38742869876933411E-02  6.48118949511907044E-02  5.58470112538417690E-02
  4.69559320516630199E-02  3.81151847143290090E-02  2.93017430402338075E-02
  2.04925602148121160E-02  1.16528058859032436E-02  2.54548407923222168E-03
  1.01188053113322952E-04  7.29780008497992619E-06  0.00000000000000000E+00
  0.00000000000000000E+00  0.00000000000000000E+00  0.00000000000000000E+00
  0.00000000000000000E+00  0.00000000000000000E+00  0.00000000000000000E+00
  0.00000000000000000E+00  0.00000000000000000E+00  0.00000000000000000E+00
  0.00000000000000000E+00  0.00000000000000000E+00  0.00000000000000000E+00
  0.00000000000000000E+00  0.00000000000000000E+00  0.00000000000000000E+00
  0.00000000000000000E+00  0.00000000000000000E+00  0.00000000000000000E+00
  0.00000000000000000E+00  0.00000000000000000E+00  0.00000000000000000E+00
  0.00000000000000000E+00  0.00000000000000000E+00  0.00000000000000000E+00
  0.00000000000000000E+00  0.00000000000000000E+00  0.00000000000000000E+00
  0.00000000000000000E+00  0.00000000000000000E+00  0.00000000000000000E+00
  0.00000000000000000E+00  0.00000000000000000E+00  0.00000000000000000E+00
  0.00000000000000000E+00  0.00000000000000000E+00  0.00000000000000000E+00
  0.00000000000000000E+00  0.00000000000000000E+00  0.00000000000000000E+00
  0.00000000000000000E+00  0.00000000000000000E+00  0.00000000000000000E+00
  0.00000000000000000E+00  0.00000000000000000E+00  0.00000000000000000E+00
  0.00000000000000000E+00  0.00000000000000000E+00  0.00000000000000000E+00
  0.00000000000000000E+00  0.00000000000000000E+00  0.00000000000000000E+00
  0.00000000000000000E+00  0.00000000000000000E+00  0.00000000000000000E+00
  0.00000000000000000E+00  0.00000000000000000E+00  0.00000000000000000E+00
  0.00000000000000000E+00  0.00000000000000000E+00  0.00000000000000000E+00
  0.00000000000000000E+00  0.00000000000000000E+00  0.00000000000000000E+00
  0.00000000000000000E+00  0.00000000000000000E+00  0.00000000000000000E+00
  0.00000000000000000E+00  0.00000000000000000E+00  0.00000000000000000E+00
  0.00000000000000000E+00  0.00000000000000000E+00  0.00000000000000000E+00
  0.00000000000000000E+00  0.00000000000000000E+00  0.00000000000000000E+00
  0.00000000000000000E+00  0.00000000000000000E+00  0.00000000000000000E+00
  0.00000000000000000E+00  0.00000000000000000E+00  0.00000000000000000E+00
  0.00000000000000000E+00  0.00000000000000000E+00  0.00000000000000000E+00
  0.00000000000000000E+00  0.00000000000000000E+00  0.00000000000000000E+00
  0.00000000000000000E+00  0.00000000000000000E+00  0.00000000000000000E+00
  0.00000000000000000E+00  0.00000000000000000E+00  0.00000000000000000E+00
  0.00000000000000000E+00  0.00000000000000000E+00  0.00000000000000000E+00
  0.00000000000000000E+00  0.00000000000000000E+00  0.00000000000000000E+00
  0.00000000000000000E+00  0.00000000000000000E+00  0.00000000000000000E+00
  0.00000000000000000E+00  0.00000000000000000E+00  0.00000000000000000E+00
  0.00000000000000000E+00  0.00000000000000000E+00  0.00000000000000000E+00
  0.00000000000000000E+00  0.00000000000000000E+00  0.00000000000000000E+00
  0.00000000000000000E+00  0.00000000000000000E+00  0.00000000000000000E+00
  0.00000000000000000E+00  0.00000000000000000E+00  0.00000000000000000E+00
  0.00000000000000000E+00  0.00000000000000000E+00  0.00000000000000000E+00
  0.00000000000000000E+00  0.00000000000000000E+00  0.00000000000000000E+00
  0.00000000000000000E+00  0.00000000000000000E+00  0.00000000000000000E+00
  0.00000000000000000E+00  0.00000000000000000E+00  0.00000000000000000E+00
  0.00000000000000000E+00  0.00000000000000000E+00  0.00000000000000000E+00
  0.00000000000000000E+00  0.00000000000000000E+00  0.00000000000000000E+00
  0.00000000000000000E+00  0.00000000000000000E+00  0.00000000000000000E+00
  0.00000000000000000E+00  0.00000000000000000E+00  0.00000000000000000E+00
  0.00000000000000000E+00  0.00000000000000000E+00  0.00000000000000000E+00
  0.00000000000000000E+00  0.00000000000000000E+00  0.00000000000000000E+00
  0.00000000000000000E+00  0.00000000000000000E+00  0.00000000000000000E+00
  0.00000000000000000E+00  0.00000000000000000E+00  0.00000000000000000E+00
  0.00000000000000000E+00  0.00000000000000000E+00  0.00000000000000000E+00
  0.00000000000000000E+00  0.00000000000000000E+00  0.00000000000000000E+00
  0.00000000000000000E+00  0.00000000000000000E+00  0.00000000000000000E+00
                              </PP_BETA.1>
 <PP_BETA.2 type="real" size="   999" angular_momentum="0" columns="3" cutoff_radius_index="   836" norm_conserving_radius="    1.903803" label= "0S">
 -1.37195014826003032E-04 -1.38920715653301463E-04 -1.40668123124130184E-04
 -1.42437510274426044E-04 -1.44229153574494624E-04 -1.46043332972208343E-04
 -1.47880331936749382E-04 -1.49740437502902300E-04 -1.51623940315903329E-04
 -1.53531134676854973E-04 -1.55462318588710192E-04 -1.57417793802836371E-04
 -1.59397865866164472E-04 -1.61402844168931126E-04 -1.63433041993022197E-04
 -1.65488776560922539E-04 -1.67570369085283112E-04 -1.69678144819111033E-04
 -1.71812433106590604E-04 -1.73973567434544647E-04 -1.76161885484541630E-04
 -1.78377729185659516E-04 -1.80621444767912527E-04 -1.82893382816350260E-04
 -1.85193898325837573E-04 -1.87523350756522230E-04 -1.89882104090001940E-04
 -1.92270526886196728E-04 -1.94688992340937033E-04 -1.97137878344277011E-04
 -1.99617567539539449E-04 -2.02128447383105022E-04 -2.04670910204952591E-04
 -2.07245353269961433E-04 -2.09852178839985148E-04 -2.12491794236704950E-04
 -2.15164611905274743E-04 -2.17871049478766395E-04 -2.20611529843425352E-04
 -2.23386481204747902E-04 -2.26196337154387783E-04 -2.29041536737906431E-04
 -2.31922524523374489E-04 -2.34839750670836153E-04 -2.37793671002647954E-04
 -2.40784747074699999E-04 -2.43813446248535958E-04 -2.46880241764379290E-04
 -2.49985612815077207E-04 -2.53130044620976033E-04 -2.56314028505736236E-04
 -2.59538061973103428E-04 -2.62802648784643544E-04 -2.66108299038456413E-04
 -2.69455529248880440E-04 -2.72844862427196937E-04 -2.76276828163352073E-04
 -2.79751962708706223E-04 -2.83270809059823277E-04 -2.86833917043316186E-04
 -2.90441843401755939E-04 -2.94095151880664643E-04 -2.97794413316601202E-04
 -3.01540205726354724E-04 -3.05333114397261709E-04 -3.09173731978656388E-04
 -3.13062658574473512E-04 -3.17000501837015202E-04 -3.20987877061897130E-04
 -3.25025407284190693E-04 -3.29113723375770218E-04 -3.33253464143888622E-04
 -3.37445276430992319E-04 -3.41689815215790544E-04 -3.45987743715596993E-04
 -3.50339733489956403E-04 -3.54746464545578296E-04 -3.59208625442587553E-04
 -3.63726913402112172E-04 -3.68302034415226404E-04 -3.72934703353261217E-04
 -3.77625644079503467E-04 -3.82375589562299761E-04 -3.87185281989583824E-04
 -3.92055472884845092E-04 -3.96986923224552468E-04 -4.01980403557057966E-04
 -4.07036694122995786E-04 -4.12156584977196514E-04 -4.17340876112132371E-04
 -4.22590377582914131E-04 -4.27905909633867108E-04 -4.33288302826692639E-04
 -4.38738398170241556E-04 -4.44257047251925123E-04 -4.49845112370773914E-04
 -4.55503466672173567E-04 -4.61232994284293358E-04 -4.67034590456230473E-04
 -4.72909161697893663E-04 -4.78857625921645907E-04 -4.84880912585727776E-04
 -4.90979962839483385E-04 -4.97155729670416204E-04 -5.03409178053096482E-04
 -5.09741285099933757E-04 -5.16153040213848842E-04 -5.22645445242874655E-04
 -5.29219514636689752E-04 -5.35876275605125002E-04 -5.42616768278666810E-04
 -5.49442045870976318E-04 -5.56353174843452099E-04 -5.63351235071864664E-04
 -5.70437320015090626E-04 -5.77612536885954014E-04 -5.84878006824235668E-04
 -5.92234865071852227E-04 -5.99684261150227379E-04 -6.07227359039910438E-04
 -6.14865337362442699E-04 -6.22599389564519796E-04 -6.30430724104463205E-04
 -6.38360564641036435E-04 -6.46390150224648743E-04 -6.54520735490945831E-04
 -6.62753590856849858E-04 -6.71090002719056588E-04 -6.79531273655032916E-04
 -6.88078722626546770E-04 -6.96733685185741639E-04 -7.05497513683822608E-04
 -7.14371577482354574E-04 -7.23357263167219563E-04 -7.32455974765271666E-04
 -7.41669133963710815E-04 -7.50998180332212387E-04 -7.60444571547862626E-04
 -7.70009783622910911E-04 -7.79695311135394312E-04 -7.89502667462660098E-04
 -7.99433385017826324E-04 -8.09489015489214554E-04 -8.19671130082792309E-04
 -8.29981319767672445E-04 -8.40421195524694250E-04 -8.50992388598132039E-04
 -8.61696550750568643E-04 -8.72535354520971303E-04 -8.83510493486031881E-04
 -8.94623682524766945E-04 -9.05876658086460663E-04 -9.17271178461977177E-04
 -9.28809024058491694E-04 -9.40491997677648833E-04 -9.52321924797263296E-04
 -9.64300653856527048E-04 -9.76430056544812697E-04 -9.88712028094124997E-04
 -1.00114848757519690E-03 -1.01374137819736673E-03 -1.02649266761215149E-03
 -1.03940434822070494E-03 -1.05247843748509299E-03 -1.06571697824353433E-03
 -1.07912203902955179E-03 -1.09269571439517396E-03 -1.10644012523819046E-03
 -1.12035741913352150E-03 -1.13444977066875607E-03 -1.14871938178391511E-03
 -1.16316848211548080E-03 -1.17779932934474222E-03 -1.19261420955056184E-03
 -1.20761543756652250E-03 -1.22280535734260970E-03 -1.23818634231143273E-03
 -1.25376079575902012E-03 -1.26953115120033628E-03 -1.28549987275946177E-03
 -1.30166945555459761E-03 -1.31804242608788845E-03 -1.33462134264015109E-03
 -1.35140879567057447E-03 -1.36840740822144502E-03 -1.38561983632794596E-03
 -1.40304876943313597E-03 -1.42069693080812127E-03 -1.43856707797753976E-03
 -1.45666200315034875E-03 -1.47498453365609386E-03 -1.49353753238660992E-03
 -1.51232389824329625E-03 -1.53134656659001975E-03 -1.55060850971172203E-03
 -1.57011273727875110E-03 -1.58986229681709634E-03 -1.60986027418447380E-03
 -1.63010979405244383E-03 -1.65061402039455205E-03 -1.67137615698065983E-03
 -1.69239944787743612E-03 -1.71368717795516100E-03 -1.73524267340093388E-03
 -1.75706930223828300E-03 -1.77917047485333705E-03 -1.80154964452761352E-03
 -1.82421030797750238E-03 -1.84715600590051247E-03 -1.87039032352843168E-03
 -1.89391689118739129E-03 -1.91773938486500132E-03 -1.94186152678462202E-03
 -1.96628708598681505E-03 -1.99101987891816103E-03 -2.01606377002743007E-03
 -2.04142267236929456E-03 -2.06710054821557070E-03 -2.09310140967420124E-03
 -2.11942931931599328E-03 -2.14608839080924086E-03 -2.17308278956232764E-03
 -2.20041673337438093E-03 -2.22809449309416046E-03 -2.25612039328717184E-03
 -2.28449881291119998E-03 -2.31323418600032967E-03 -2.34233100235754863E-03
 -2.37179380825606762E-03 -2.40162720714945377E-03 -2.43183586039072072E-03
 -2.46242448796038212E-03 -2.49339786920372295E-03 -2.52476084357729875E-03
 -2.55651831140487826E-03 -2.58867523464279469E-03 -2.62123663765494955E-03
 -2.65420760799764139E-03 -2.68759329721411514E-03 -2.72139892163918064E-03
 -2.75562976321396848E-03 -2.79029117031083041E-03 -2.82538855856868899E-03
 -2.86092741173884450E-03 -2.89691328254143565E-03 -2.93335179353259277E-03
 -2.97024863798261247E-03 -3.00760958076503465E-03 -3.04544045925696574E-03
 -3.08374718425070927E-03 -3.12253574087678577E-03 -3.16181218953866857E-03
 -3.20158266685911363E-03 -3.24185338663851661E-03 -3.28263064082519752E-03
 -3.32392080049795282E-03 -3.36573031686090074E-03 -3.40806572225084946E-03
 -3.45093363115727293E-03 -3.49434074125518123E-03 -3.53829383445088217E-03
 -3.58279977794086777E-03 -3.62786552528413138E-03 -3.67349811748774726E-03
 -3.71970468410625851E-03 -3.76649244435475544E-03 -3.81386870823600434E-03
 -3.86184087768167567E-03 -3.91041644770791751E-03 -3.95960300758543392E-03
 -4.00940824202426858E-03 -4.05983993237344232E-03 -4.11090595783563263E-03
 -4.16261429669712892E-03 -4.21497302757321054E-03 -4.26799033066918923E-03
 -4.32167448905718989E-03 -4.37603388996902435E-03 -4.43107702610526580E-03
 -4.48681249696079691E-03 -4.54324901016686135E-03 -4.60039538285010336E-03
 -4.65826054300852617E-03 -4.71685353090481145E-03 -4.77618350047706499E-03
 -4.83625972076723136E-03 -4.89709157736745258E-03 -4.95868857388461273E-03
 -5.02106033342312498E-03 -5.08421660008643618E-03 -5.14816724049725529E-03
 -5.21292224533691142E-03 -5.27849173090395168E-03 -5.34488594069232673E-03
 -5.41211524698929566E-03 -5.48019015249337754E-03 -5.54912129195265971E-03
 -5.61891943382343290E-03 -5.68959548194980340E-03 -5.76116047726430228E-03
 -5.83362559950963751E-03 -5.90700216898225761E-03 -5.98130164829750212E-03
 -6.05653564417705983E-03 -6.13271590925868089E-03 -6.20985434392853572E-03
 -6.28796299817667090E-03 -6.36705407347536081E-03 -6.44713992468135075E-03
 -6.52823306196160819E-03 -6.61034615274327594E-03 -6.69349202368804078E-03
 -6.77768366269112989E-03 -6.86293422090532897E-03 -6.94925701479029694E-03
 -7.03666552818750686E-03 -7.12517341442118080E-03 -7.21479449842529069E-03
 -7.30554277889737189E-03 -7.39743243047908186E-03 -7.49047780596399666E-03
 -7.58469343853312734E-03 -7.68009404401814432E-03 -7.77669452319289332E-03
 -7.87450996409379961E-03 -7.97355564436872701E-03 -8.07384703365553354E-03
 -8.17539979599017294E-03 -8.27822979224470366E-03 -8.38235308259595996E-03
 -8.48778592902469341E-03 -8.59454479784609732E-03 -8.70264636227167758E-03
 -8.81210750500322805E-03 -8.92294532085880811E-03 -9.03517711943181701E-03
 -9.14882042778278684E-03 -9.26389299316485171E-03 -9.38041278578311336E-03
 -9.49839800158828844E-03 -9.61786706510512138E-03 -9.73883863229575014E-03
 -9.86133159345909532E-03 -9.98536507616574857E-03 -1.01109584482296736E-02
 -1.02381313207164908E-02 -1.03669035509894331E-02 -1.04972952457927909E-02
 -1.06293267643736492E-02 -1.07630187216425192E-02 -1.08983919913727724E-02
 -1.10354677094400399E-02 -1.11742672771015499E-02 -1.13148123643159598E-02
 -1.14571249131044817E-02 -1.16012271409535322E-02 -1.17471415442589704E-02
 -1.18948909018137070E-02 -1.20444982783376557E-02 -1.21959870280516913E-02
 -1.23493807982952477E-02 -1.25047035331891480E-02 -1.26619794773430248E-02
 -1.28212331796086418E-02 -1.29824894968793066E-02 -1.31457735979361966E-02
 -1.33111109673417945E-02 -1.34785274093813506E-02 -1.36480490520524619E-02
 -1.38197023511041055E-02 -1.39935140941245661E-02 -1.41695114046800456E-02
 -1.43477217465037138E-02 -1.45281729277359425E-02 -1.47108931052167425E-02
 -1.48959107888302147E-02 -1.50832548459024444E-02 -1.52729545056530126E-02
 -1.54650393637004724E-02 -1.56595393866231850E-02 -1.58564849165754168E-02
 -1.60559066759596095E-02 -1.62578357721555010E-02 -1.64623037023066653E-02
 -1.66693423581650534E-02 -1.68789840309945052E-02 -1.70912614165330302E-02
 -1.73062076200160911E-02 -1.75238561612594546E-02 -1.77442409798045687E-02
 -1.79673964401247943E-02 -1.81933573368954528E-02 -1.84221589003264498E-02
 -1.86538368015595653E-02 -1.88884271581300361E-02 -1.91259665394940374E-02
 -1.93664919726219791E-02 -1.96100409476591166E-02 -1.98566514236532925E-02
 -2.01063618343510810E-02 -2.03592110940634605E-02 -2.06152386036003860E-02
 -2.08744842562765369E-02 -2.11369884439878003E-02 -2.14027920633600120E-02
 -2.16719365219700498E-02 -2.19444637446404127E-02 -2.22204161798080363E-02
 -2.24998368059679474E-02 -2.27827691381921812E-02 -2.30692572347256132E-02
 -2.33593457036584927E-02 -2.36530797096766721E-02 -2.39505049808909597E-02
 -2.42516678157454098E-02 -2.45566150900055832E-02 -2.48653942638280175E-02
 -2.51780533889109336E-02 -2.54946411157273671E-02 -2.58152067008415344E-02
 -2.61398000143085556E-02 -2.64684715471592211E-02 -2.68012724189697002E-02
 -2.71382543855174449E-02 -2.74794698465235243E-02 -2.78249718534830555E-02
 -2.81748141175829844E-02 -2.85290510177095800E-02 -2.88877376085450131E-02
 -2.92509296287543526E-02 -2.96186835092638392E-02 -2.99910563816303544E-02
 -3.03681060865041048E-02 -3.07498911821831693E-02 -3.11364709532632698E-02
 -3.15279054193801297E-02 -3.19242553440486493E-02 -3.23255822435960793E-02
 -3.27319483961927768E-02 -3.31434168509789628E-02 -3.35600514372888653E-02
 -3.39819167739735459E-02 -3.44090782788215518E-02 -3.48416021780785026E-02
 -3.52795555160672208E-02 -3.57230061649065900E-02 -3.61720228343320113E-02
 -3.66266750816155937E-02 -3.70870333215890871E-02 -3.75531688367674241E-02
 -3.80251537875744977E-02 -3.85030612226717750E-02 -3.89869650893891750E-02
 -3.94769402442589137E-02 -3.99730624636524118E-02 -4.04754084545209947E-02
 -4.09840558652390385E-02 -4.14990832965519904E-02 -4.20205703126267371E-02
 -4.25485974522062591E-02 -4.30832462398679228E-02 -4.36245991973842825E-02
 -4.41727398551887765E-02 -4.47277527639426548E-02 -4.52897235062068165E-02
 -4.58587387082138170E-02 -4.64348860517441731E-02 -4.70182542861022554E-02
 -4.76089332401950296E-02 -4.82070138347108768E-02 -4.88125880943966611E-02
 -4.94257491604357252E-02 -5.00465913029236598E-02 -5.06752099334398659E-02
 -5.13117016177172119E-02 -5.19561640884049908E-02 -5.26086962579271206E-02
 -5.32693982314311892E-02 -5.39383713198296824E-02 -5.46157180529297237E-02
 -5.53015421926506823E-02 -5.59959487463277394E-02 -5.66990439800987012E-02
 -5.74109354323725646E-02 -5.81317319273783537E-02 -5.88615435887894847E-02
 -5.96004818534233011E-02 -6.03486594850123070E-02 -6.11061905880436462E-02
 -6.18731906216648669E-02 -6.26497764136509094E-02 -6.34360661744312881E-02
 -6.42321795111711197E-02 -6.50382374419044285E-02 -6.58543624097126384E-02
 -6.66806782969496664E-02 -6.75173104395001278E-02 -6.83643856410749151E-02
 -6.92220321875325062E-02 -7.00903798612242113E-02 -7.09695599553556988E-02
 -7.18597052883611503E-02 -7.27609502182795659E-02 -7.36734306571320829E-02
 -7.45972840852888314E-02 -7.55326495658209529E-02 -7.64796677588273632E-02
 -7.74384809357319542E-02 -7.84092329935393850E-02 -7.93920694690422868E-02
 -8.03871375529703197E-02 -8.13945861040720892E-02 -8.24145656631181250E-02
 -8.34472284668164449E-02 -8.44927284616273505E-02 -8.55512213174683955E-02
 -8.66228644412948001E-02 -8.77078169905440574E-02 -8.88062398864323255E-02
 -8.99182958270855065E-02 -9.10441493004945784E-02 -9.21839665972776778E-02
 -9.33379158232314071E-02 -9.45061669116611380E-02 -9.56888916354646096E-02
 -9.68862636189584542E-02 -9.80984583494217965E-02 -9.93256531883463245E-02
 -1.00568027382362354E-01 -1.01825762073826778E-01 -1.03099040311047607E-01
 -1.04388047058124017E-01 -1.05692969204373849E-01 -1.07013995573328261E-01
 -1.08351316931264471E-01 -1.09705125995249439E-01 -1.11075617440666533E-01
 -1.12462987908195977E-01 -1.13867436010218287E-01 -1.15289162336606688E-01
 -1.16728369459876483E-01 -1.18185261939659128E-01 -1.19660046326460254E-01
 -1.21152931164664940E-01 -1.22664126994754888E-01 -1.24193846354692494E-01
 -1.25742303780431053E-01 -1.27309715805505069E-01 -1.28896300959661009E-01
 -1.30502279766471607E-01 -1.32127874739890683E-01 -1.33773310379696031E-01
 -1.35438813165764865E-01 -1.37124611551125708E-01 -1.38830935953733525E-01
 -1.40558018746900854E-01 -1.42306094248330101E-01 -1.44075398707674440E-01
 -1.45866170292566183E-01 -1.47678649073039903E-01 -1.49513077004275768E-01
 -1.51369697907591361E-01 -1.53248757449599732E-01 -1.55150503119458910E-01
 -1.57075184204115675E-01 -1.59023051761470136E-01 -1.60994358591362074E-01
 -1.62989359204283840E-01 -1.65008309787725821E-01 -1.67051468170050676E-01
 -1.69119093781790575E-01 -1.71211447614256218E-01 -1.73328792175348911E-01
 -1.75471391442451524E-01 -1.77639510812283186E-01 -1.79833417047580407E-01
 -1.82053378220485784E-01 -1.84299663652499696E-01 -1.86572543850855616E-01
 -1.88872290441169627E-01 -1.91199176096221446E-01 -1.93553474460697011E-01
 -1.95935460071739731E-01 -1.98345408275137636E-01 -2.00783595136964726E-01
 -2.03250297350511200E-01 -2.05745792138295303E-01 -2.08270357148977098E-01
 -2.10824270348965476E-01 -2.13407809908506968E-01 -2.16021254082049252E-01
 -2.18664881082647949E-01 -2.21338968950181292E-01 -2.24043795413146674E-01
 -2.26779637743773382E-01 -2.29546772606208593E-01 -2.32345475897499376E-01
 -2.35176022581103483E-01 -2.38038686512635517E-01 -2.40933740257563395E-01
 -2.43861454900540009E-01 -2.46822099846061016E-01 -2.49815942610114666E-01
 -2.52843248602500847E-01 -2.55904280899445669E-01 -2.58999300006175659E-01
 -2.62128563609062115E-01 -2.65292326316950267E-01 -2.68490839391281544E-01
 -2.71724350464587372E-01 -2.74993103246934267E-01 -2.78297337219873431E-01
 -2.81637287317445695E-01 -2.85013183593757269E-01 -2.88425250876660766E-01
 -2.91873708407015209E-01 -2.95358769463016702E-01 -2.98880640969071243E-01
 -3.02439523088627704E-01 -3.06035608800435455E-01 -3.09669083457593253E-01
 -3.13340124328817193E-01 -3.17048900121260580E-01 -3.20795570484265657E-01
 -3.24580285493347553E-01 -3.28403185113727125E-01 -3.32264398642698466E-01
 -3.36164044130074835E-01 -3.40102227775961441E-01 -3.44079043305061116E-01
 -3.48094571316682089E-01 -3.52148878609635008E-01 -3.56242017481108286E-01
 -3.60374024998670273E-01 -3.64544922244422920E-01 -3.68754713530390188E-01
 -3.73003385584125491E-01 -3.77290906703524775E-01 -3.81617225879799515E-01
 -3.85982271887507833E-01 -3.90385952340534192E-01 -3.94828152712842106E-01
 -3.99308735322817465E-01 -4.03827538279955156E-01 -4.08384374392608440E-01
 -4.12979030035504624E-01 -4.17611263975625202E-01 -4.22280806155088284E-01
 -4.26987356429543552E-01 -4.31730583260607481E-01 -4.36510122360763531E-01
 -4.41325575289143457E-01 -4.46176507996531801E-01 -4.51062449317888636E-01
 -4.55982889410609049E-01 -4.60937278136720252E-01 -4.65925023387122439E-01
 -4.70945489345929225E-01 -4.75997994692891779E-01 -4.81081810741853688E-01
 -4.86196159513075488E-01 -4.91340211737226140E-01 -4.96513084788758274E-01
 -5.01713840546318957E-01 -5.06941483177752561E-01 -5.12194956847201510E-01
 -5.17473143341729558E-01 -5.22774859614785870E-01 -5.28098855243787080E-01
 -5.33443809798995749E-01 -5.38808330120800760E-01 -5.44190947502401379E-01
 -5.49590114774860528E-01 -5.55004203291394660E-01 -5.60431499807677036E-01
 -5.65870203254898785E-01 -5.71318421402242760E-01 -5.76774167405342819E-01
 -5.82235356237306378E-01 -5.87699800998787603E-01 -5.93165209103567737E-01
 -5.98629178336105738E-01 -6.04089192777475303E-01 -6.09542618596183750E-01
 -6.14986699700293293E-01 -6.20418553247466642E-01 -6.25835165009478556E-01
 -6.31233384588028468E-01 -6.36609920478690583E-01 -6.41961334980146625E-01
 -6.47284038946034812E-01 -6.52574286377095580E-01 -6.57828168851620876E-01
 -6.63041609792684894E-01 -6.68210358571169394E-01 -6.73329984444179130E-01
 -6.78395870329166262E-01 -6.83403206414968323E-01 -6.88346983611807017E-01
 -6.93221986843547522E-01 -6.98022788186682397E-01 -7.02743739862003336E-01
 -7.07378967086506383E-01 -7.11922360794992604E-01 -7.16367570242872453E-01
 -7.20707995504062726E-01 -7.24936779880499760E-01 -7.29046802242734215E-01
 -7.33030669324392870E-01 -7.36880707996944717E-01 -7.40588957555275318E-01
 -7.44147162049084265E-01 -7.47546762700097012E-01 -7.50778890450542025E-01
 -7.53834358694373874E-01 -7.56703656249267165E-01 -7.59376940634693298E-01
 -7.61844031729084548E-01 -7.64094405887716599E-01 -7.66117190612120469E-01
 -7.67901159871739902E-01 -7.69434730189284544E-01 -7.70705957612780712E-01
 -7.71702535709535176E-01 -7.72411794730004098E-01 -7.72820702103683144E-01
 -7.72915864443855405E-01 -7.72683531252967182E-01 -7.72109600536710516E-01
 -7.71179626551194319E-01 -7.69878829924948715E-01 -7.68192110414821827E-01
 -7.66104062572629863E-01 -7.63598994617217031E-01 -7.60660950824209925E-01
 -7.57273737762930388E-01 -7.53420954726480296E-01 -7.49086028716334451E-01
 -7.44252254356811971E-01 -7.38902839126563404E-01 -7.33020954303886585E-01
 -7.26589792028836445E-01 -7.19592628887877450E-01 -7.12012896424797481E-01
 -7.03834258974496363E-01 -6.95040699202801426E-01 -6.85616611714895630E-01
 -6.75546905066228165E-01 -6.64817112471886129E-01 -6.53413511462981544E-01
 -6.41323252673506317E-01 -6.28534497873639353E-01 -6.15036567277225554E-01
 -6.00820096046883245E-01 -5.85877199801555171E-01 -5.70201648794121607E-01
 -5.53789050270648398E-01 -5.36637038346837292E-01 -5.18745470540572962E-01
 -5.00116629881668162E-01 -4.80755431280545265E-01 -4.60669630577007050E-01
 -4.39870034408801347E-01 -4.18370708738406649E-01 -3.96189183557282665E-01
 -3.73346650951545844E-01 -3.49868153365321510E-01 -3.25782758541348527E-01
 -3.01123717258003964E-01 -2.75928599623681436E-01 -2.50239405340557441E-01
 -2.24102643018707748E-01 -1.97569373318182029E-01 -1.70695210432353361E-01
 -1.43540276213089207E-01 -1.16169101091154775E-01 -8.86504658889471636E-02
 -6.10571786595100058E-02 -3.34657808471390400E-02 -5.95617737470184073E-03
  2.13888142574729032E-02  4.84840000970983842E-02  7.52424344165751047E-02
  1.01576135094583769E-01  1.27396890383158101E-01  1.52617155927992937E-01
  1.77151038715206710E-01  2.00915361997715314E-01  2.23830802163323739E-01
  2.45823084899750938E-01  2.66824223846799269E-01  2.86773780166355019E-01
  3.05620116081414150E-01  3.23321609427741852E-01  3.39847789644261655E-01
  3.55180348457354522E-01  3.69313970899082522E-01  3.82256924421780164E-01
  3.94031336007930888E-01  4.04673079725416884E-01  4.14231190702432028E-01
  4.22766716697362654E-01  4.30350916429151520E-01  4.37062715735769325E-01
  4.42985340017322538E-01  4.48202056324949694E-01  4.52790983128272984E-01
  4.56818962965585607E-01  4.60334545971802789E-01  4.63360204175877144E-01
  4.65883991249853524E-01  4.67850984061619291E-01  4.69154994967806382E-01
  4.69631231182137676E-01  4.69050803316794718E-01  4.67118252294956959E-01
  4.63473574469833061E-01  4.57700580243924904E-01  4.49343822101535617E-01
  4.37936773264466062E-01  4.23044427111705479E-01  4.04324018804540553E-01
  3.81608142906808334E-01  3.55015152262286082E-01  3.25092366745734218E-01
  2.92956943843704798E-01  2.59507473582722525E-01  2.25006542920006797E-01
  1.89701900826097003E-01  1.53856763701321647E-01  1.17747874218660439E-01
  8.16606533959208236E-02  4.58423708052579232E-02  9.80414356637151520E-03
  3.88695483832595182E-04  2.80331703957978786E-05  0.00000000000000000E+00
  0.00000000000000000E+00  0.00000000000000000E+00  0.00000000000000000E+00
  0.00000000000000000E+00  0.00000000000000000E+00  0.00000000000000000E+00
  0.00000000000000000E+00  0.00000000000000000E+00  0.00000000000000000E+00
  0.00000000000000000E+00  0.00000000000000000E+00  0.00000000000000000E+00
  0.00000000000000000E+00  0.00000000000000000E+00  0.00000000000000000E+00
  0.00000000000000000E+00  0.00000000000000000E+00  0.00000000000000000E+00
  0.00000000000000000E+00  0.00000000000000000E+00  0.00000000000000000E+00
  0.00000000000000000E+00  0.00000000000000000E+00  0.00000000000000000E+00
  0.00000000000000000E+00  0.00000000000000000E+00  0.00000000000000000E+00
  0.00000000000000000E+00  0.00000000000000000E+00  0.00000000000000000E+00
  0.00000000000000000E+00  0.00000000000000000E+00  0.00000000000000000E+00
  0.00000000000000000E+00  0.00000000000000000E+00  0.00000000000000000E+00
  0.00000000000000000E+00  0.00000000000000000E+00  0.00000000000000000E+00
  0.00000000000000000E+00  0.00000000000000000E+00  0.00000000000000000E+00
  0.00000000000000000E+00  0.00000000000000000E+00  0.00000000000000000E+00
  0.00000000000000000E+00  0.00000000000000000E+00  0.00000000000000000E+00
  0.00000000000000000E+00  0.00000000000000000E+00  0.00000000000000000E+00
  0.00000000000000000E+00  0.00000000000000000E+00  0.00000000000000000E+00
  0.00000000000000000E+00  0.00000000000000000E+00  0.00000000000000000E+00
  0.00000000000000000E+00  0.00000000000000000E+00  0.00000000000000000E+00
  0.00000000000000000E+00  0.00000000000000000E+00  0.00000000000000000E+00
  0.00000000000000000E+00  0.00000000000000000E+00  0.00000000000000000E+00
  0.00000000000000000E+00  0.00000000000000000E+00  0.00000000000000000E+00
  0.00000000000000000E+00  0.00000000000000000E+00  0.00000000000000000E+00
  0.00000000000000000E+00  0.00000000000000000E+00  0.00000000000000000E+00
  0.00000000000000000E+00  0.00000000000000000E+00  0.00000000000000000E+00
  0.00000000000000000E+00  0.00000000000000000E+00  0.00000000000000000E+00
  0.00000000000000000E+00  0.00000000000000000E+00  0.00000000000000000E+00
  0.00000000000000000E+00  0.00000000000000000E+00  0.00000000000000000E+00
  0.00000000000000000E+00  0.00000000000000000E+00  0.00000000000000000E+00
  0.00000000000000000E+00  0.00000000000000000E+00  0.00000000000000000E+00
  0.00000000000000000E+00  0.00000000000000000E+00  0.00000000000000000E+00
  0.00000000000000000E+00  0.00000000000000000E+00  0.00000000000000000E+00
  0.00000000000000000E+00  0.00000000000000000E+00  0.00000000000000000E+00
  0.00000000000000000E+00  0.00000000000000000E+00  0.00000000000000000E+00
  0.00000000000000000E+00  0.00000000000000000E+00  0.00000000000000000E+00
  0.00000000000000000E+00  0.00000000000000000E+00  0.00000000000000000E+00
  0.00000000000000000E+00  0.00000000000000000E+00  0.00000000000000000E+00
  0.00000000000000000E+00  0.00000000000000000E+00  0.00000000000000000E+00
  0.00000000000000000E+00  0.00000000000000000E+00  0.00000000000000000E+00
  0.00000000000000000E+00  0.00000000000000000E+00  0.00000000000000000E+00
  0.00000000000000000E+00  0.00000000000000000E+00  0.00000000000000000E+00
  0.00000000000000000E+00  0.00000000000000000E+00  0.00000000000000000E+00
  0.00000000000000000E+00  0.00000000000000000E+00  0.00000000000000000E+00
  0.00000000000000000E+00  0.00000000000000000E+00  0.00000000000000000E+00
  0.00000000000000000E+00  0.00000000000000000E+00  0.00000000000000000E+00
  0.00000000000000000E+00  0.00000000000000000E+00  0.00000000000000000E+00
  0.00000000000000000E+00  0.00000000000000000E+00  0.00000000000000000E+00
  0.00000000000000000E+00  0.00000000000000000E+00  0.00000000000000000E+00
  0.00000000000000000E+00  0.00000000000000000E+00  0.00000000000000000E+00
  0.00000000000000000E+00  0.00000000000000000E+00  0.00000000000000000E+00
  0.00000000000000000E+00  0.00000000000000000E+00  0.00000000000000000E+00
  0.00000000000000000E+00  0.00000000000000000E+00  0.00000000000000000E+00
  0.00000000000000000E+00  0.00000000000000000E+00  0.00000000000000000E+00
                              </PP_BETA.2>
 <PP_BETA.3 type="real" size="   999" angular_momentum="1" columns="3" cutoff_radius_index="   836" norm_conserving_radius="    1.903803" label= "3P">
  4.17358394715919815E-08  4.27923874544440532E-08  4.38756821418128036E-08
  4.49864005739138091E-08  4.61252369074014025E-08  4.72929028671836962E-08
  4.84901282287060100E-08  4.97176613973885083E-08  5.09762697719317395E-08
  5.22667401800790960E-08  5.35898792255039833E-08  5.49465137658584870E-08
  5.63374915745093124E-08  5.77636819370857525E-08  5.92259763289983527E-08
  6.07252888348758757E-08  6.22625566746477107E-08  6.38387407239398594E-08
  6.54548261512016712E-08  6.71118230613464990E-08  6.88107670919607872E-08
  7.05527200695322993E-08  7.23387707004835382E-08  7.41700353080839912E-08
  7.60476585229504759E-08  7.79728139602090719E-08  7.99467050160240466E-08
  8.19705656069033785E-08  8.40456608516541021E-08  8.61732875093817873E-08
  8.83547749467984467E-08  9.05914863080005387E-08  9.28848199267345053E-08
  9.52362097543656341E-08  9.76471258058114976E-08  1.00119074786823478E-07
  1.02653601480341104E-07  1.05252289923734584E-07  1.07916764375583439E-07
  1.10648690222090676E-07  1.13449775032248852E-07  1.16321769611329258E-07
  1.19266469132188502E-07  1.22285714259464094E-07  1.25381392176494451E-07
  1.28555437560709420E-07  1.31809834019895977E-07  1.35146615624567756E-07
  1.38567868100774631E-07  1.42075729995419598E-07  1.45672394017478878E-07
  1.49360108322958023E-07  1.53141177748658979E-07  1.57017965419756880E-07
  1.60992894248554755E-07  1.65068448498546669E-07  1.69247175758382935E-07
  1.73531688397170521E-07  1.77924664416133892E-07  1.82428849103000351E-07
  1.87047057462577890E-07  1.91782176077871888E-07  1.96637164609501273E-07
  2.01615057620179330E-07  2.06718966674448815E-07  2.11952082376224530E-07
  2.17317675594138767E-07  2.22819099240387706E-07  2.28459791575628799E-07
  2.34243278553758474E-07  2.40173175197564336E-07  2.46253187835025559E-07
  2.52487116818326921E-07  2.58878858776459842E-07  2.65432408428389204E-07
  2.72151861565777126E-07  2.79041418499828105E-07  2.86105385727966532E-07
  2.93348177974957178E-07  3.00774322081934629E-07  3.08388459986283621E-07
  3.16195350840061342E-07  3.24199874138914116E-07  3.32407033064112487E-07
  3.40821957349843304E-07  3.49449906405889637E-07  3.58296273046124867E-07
  3.67366586590959631E-07  3.76666515794117219E-07  3.86201873581222966E-07
  3.95978620643009550E-07  4.06002867227336053E-07  4.16280878426667782E-07
  4.26819078901124151E-07  4.37624055468083234E-07  4.48702561290170896E-07
  4.60061520340736433E-07  4.71708032684377251E-07  4.83649378154649251E-07
  4.95893020235010110E-07  5.08446611692659993E-07  5.21317998929647620E-07
  5.34515226652993255E-07  5.48046543532788959E-07  5.61920407592730349E-07
  5.76145490679102663E-07  5.90730682549643844E-07  6.05685100375793293E-07
  6.21018091478470749E-07  6.36739238122151586E-07  6.52858368838193517E-07
  6.69385557598316033E-07  6.86331133162398304E-07  7.03705688481327552E-07
  7.21520082594677478E-07  7.39785449725864187E-07  7.58513206469877515E-07
  7.77715059102830304E-07  7.97403010365528591E-07  8.17589362573611949E-07
  8.38286734639846500E-07  8.59508064202728353E-07  8.81266613344383848E-07
  9.03575983285626639E-07  9.26450117932262926E-07  9.49903313478287692E-07
  9.73950229871102758E-07  9.98605896871553342E-07  1.02388572375536518E-06
  1.04980551320297946E-06  1.07638146644659228E-06  1.10363019198234100E-06
  1.13156872229254478E-06  1.16021451971513908E-06  1.18958548870284030E-06
  1.21969998770047529E-06  1.25057683879165858E-06  1.28223534071611962E-06
  1.31469528160644215E-06  1.34797695035809787E-06  1.38210114744272898E-06
  1.41708920321058050E-06  1.45296298575955751E-06  1.48974491726069164E-06
  1.52745798750500628E-06  1.56612576804727186E-06  1.60577242986444157E-06
  1.64642274986552904E-06  1.68810213755094411E-06  1.73083664444170519E-06
  1.77465297974151883E-06  1.81957853165558789E-06  1.86564137912379921E-06
  1.91287031272324440E-06  1.96129485258825944E-06  2.01094526464676341E-06
  2.06185258293126767E-06  2.11404862688253718E-06  2.16756601902579119E-06
  2.22243820949819651E-06  2.27869949730676915E-06  2.33638504577896247E-06
  2.39553091023935614E-06  2.45617405911557247E-06  2.51835239697977572E-06
  2.58210478678372657E-06  2.64747107505136308E-06  2.71449211886102594E-06
  2.78320980808699186E-06  2.85366709346947929E-06  2.92590801317421135E-06
  2.99997772067556440E-06  3.07592251060028397E-06  3.15378985246906378E-06
  3.23362841466483213E-06  3.31548809914737779E-06  3.39942007200190157E-06
  3.48547679098461291E-06  3.57371204621594263E-06  3.66418098752101310E-06
  3.75694016024487719E-06  3.85204754188211547E-06  3.94956257769803005E-06
  4.04954621839787815E-06  4.15206095500862147E-06  4.25717086532837706E-06
  4.36494164431280948E-06  4.47544065330776470E-06  4.58873695669322406E-06
  4.70490136891988745E-06  4.82400649580214640E-06  4.94612678360900507E-06
  5.07133855960167191E-06  5.19972008640537363E-06  5.33135160593040979E-06
  5.46631539065414216E-06  5.60469580000331942E-06  5.74657932555908794E-06
  5.89205464609346490E-06  6.04121269226755966E-06  6.19414669046694415E-06
  6.35095222969646276E-06  6.51172731926684963E-06  6.67657244716325909E-06
  6.84559064721049341E-06  7.01888756191304469E-06  7.19657150804719862E-06
  7.37875354037100213E-06  7.56554753231702736E-06  7.75707023471225226E-06
  7.95344135463979769E-06  8.15478363114780541E-06  8.36122290867956540E-06
  8.57288821806642257E-06  8.78991185785057654E-06  9.01242947441853536E-06
  9.24058014807018989E-06  9.47450647963143424E-06  9.71435468220603001E-06
  9.96027466586871281E-06  1.02124201406710564E-05  1.04709487044533054E-05
  1.07360219450990297E-05  1.10078055429918297E-05  1.12864693692460034E-05
  1.15721876007874948E-05  1.18651388181896830E-05  1.21655061242018475E-05
  1.24734772598498035E-05  1.27892447153021053E-05  1.31130058566567272E-05
  1.34449630430030679E-05  1.37853237587413444E-05  1.41343007395413131E-05
  1.44921121069755679E-05  1.48589815038420574E-05  1.52351382353820042E-05
  1.56208174109431583E-05  1.60162600912984779E-05  1.64217134417752255E-05
  1.68374308809394537E-05  1.72636722470474646E-05  1.77007039531874425E-05
  1.81487991571338769E-05  1.86082379321493640E-05  1.90793074415049780E-05
  1.95623021187542186E-05  2.00575238487862227E-05  2.05652821619955240E-05
  2.10858944204059936E-05  2.16196860242948776E-05  2.21669906093246930E-05
  2.27281502558357886E-05  2.33035157064436307E-05  2.38934465819726413E-05
  2.44983116063096690E-05  2.51184888379221091E-05  2.57543659064527620E-05
  2.64063402547840590E-05  2.70748193834400879E-05  2.77602211143140857E-05
  2.84629738431338762E-05  2.91835168095777159E-05  2.99223003755314810E-05
  3.06797863014080741E-05  3.14564480387351797E-05  3.22527710212755953E-05
  3.30692529769736771E-05  3.39064042294998997E-05  3.47647480218541284E-05
  3.56448208435165300E-05  3.65471727649174582E-05  3.74723677821310673E-05
  3.84209841681535565E-05  3.93936148341829018E-05  4.03908677039151057E-05
  4.14133660867793243E-05  4.24617490704696119E-05  4.35366719267258931E-05
  4.46388065120226278E-05  4.57688416887290151E-05  4.69274837605382467E-05
  4.81154569099742817E-05  4.93335036525691372E-05  5.05823853010944809E-05
  5.18628824408798479E-05  5.31757954126339566E-05  5.45219448256462912E-05
  5.59021720583015674E-05  5.73173397872742249E-05  5.87683325297266518E-05
  6.02560571949143121E-05  6.17814436462235553E-05  6.33454452932691065E-05
  6.49490396727273338E-05  6.65932290727925315E-05  6.82790411543447853E-05
  7.00075295887382963E-05  7.17797747264367354E-05  7.35968842630382040E-05
  7.54599939356475285E-05  7.73702682327306499E-05  7.93289011200375941E-05
  8.13371167902182950E-05  8.33961704240611200E-05  8.55073489788747216E-05
  8.76719719892977864E-05  8.98913923917173010E-05  9.21669973753755920E-05
  9.45002092417208126E-05  9.68924863011778545E-05  9.93453237764220059E-05
  1.01860254744812949E-04  1.04438851089192847E-04  1.07082724486819023E-04
  1.09793527410797527E-04  1.12572954168307129E-04  1.15422741956173333E-04
  1.18344671947339923E-04  1.21340570403292959E-04  1.24412309815022772E-04
  1.27561810078250594E-04  1.30791039687556059E-04  1.34102016967439563E-04
  1.37496811336023267E-04  1.40977544596902380E-04  1.44546392265683540E-04
  1.48205584931375954E-04  1.51957409644301128E-04  1.55804211353377346E-04
  1.59748394367309509E-04  1.63792423854185046E-04  1.67938827391689142E-04
  1.72190196535453754E-04  1.76549188448366605E-04  1.81018527553309327E-04
  1.85601007240311433E-04  1.90299491612359303E-04  1.95116917271800542E-04
  2.00056295159973553E-04  2.05120712437304045E-04  2.10313334410346396E-04
  2.15637406512778188E-04  2.21096256331396618E-04  2.26693295686830495E-04
  2.32432022768470106E-04  2.38316024314094737E-04  2.44348977856752303E-04
  2.50534654020862489E-04  2.56876918878312752E-04  2.63379736365778087E-04
  2.70047170761169458E-04  2.76883389222304355E-04  2.83892664392690656E-04
  2.91079377070617375E-04  2.98448018946518006E-04  3.06003195412086148E-04
  3.13749628433144601E-04  3.21692159508159552E-04  3.29835752684571411E-04
  3.38185497665747657E-04  3.46746612996392731E-04  3.55524449310034294E-04
  3.64524492684956602E-04  3.73752368070127147E-04  3.83213842792670483E-04
  3.92914830167436868E-04  4.02861393195370107E-04  4.13059748345696138E-04
  4.23516269440026851E-04  4.34237491640872080E-04  4.45230115530836055E-04
  4.56501011298165256E-04  4.68057223034982594E-04  4.79905973130464807E-04
  4.92054666793481340E-04  5.04510896669493327E-04  5.17282447594327580E-04
  5.30377301446768000E-04  5.43803642144664303E-04  5.57569860756789251E-04
  5.71684560743382646E-04  5.86156563329684336E-04  6.00994913021903076E-04
  6.16208883254090235E-04  6.31807982185579793E-04  6.47801958633692108E-04
  6.64200808174836613E-04  6.81014779382445919E-04  6.98254380228550617E-04
  7.15930384651956592E-04  7.34053839287871759E-04  7.52636070367253144E-04
  7.71688690793908595E-04  7.91223607400761710E-04  8.11253028381786023E-04
  8.31789470922537065E-04  8.52845769020344987E-04  8.74435081498101141E-04
  8.96570900225476699E-04  9.19267058543155112E-04  9.42537739910920421E-04
  9.66397486757577628E-04  9.90861209571476491E-04  1.01594419620825490E-03
  1.04166212144371799E-03  1.06803105675892839E-03  1.09506748038572135E-03
  1.12278828758570503E-03  1.15121080121677538E-03  1.18035278253679986E-03
  1.21023244230784562E-03  1.24086845215964849E-03  1.27227995625641029E-03
  1.30448658324759507E-03  1.33750845852608153E-03  1.37136621679299648E-03
  1.40608101495032049E-03  1.44167454529862569E-03  1.47816904909483723E-03
  1.51558733042788762E-03  1.55395277046376542E-03  1.59328934204056635E-03
  1.63362162463517044E-03  1.67497481970965700E-03  1.71737476644051330E-03
  1.76084795785363697E-03  1.80542155736029353E-03  1.85112341571352446E-03
  1.89798208839190500E-03  1.94602685342244513E-03  1.99528772965986735E-03
  2.04579549551613463E-03  2.09758170817280582E-03  2.15067872327657627E-03
  2.20511971512900697E-03  2.26093869738945574E-03  2.31817054430411267E-03
  2.37685101245774591E-03  2.43701676309646727E-03  2.49870538499249615E-03
  2.56195541790257744E-03  2.62680637660577237E-03  2.69329877556169451E-03
  2.76147415418160269E-03  2.83137510273733699E-03  2.90304528893225826E-03
  2.97652948513484582E-03  3.05187359630249575E-03  3.12912468861311277E-03
  3.20833101881508450E-03  3.28954206432182077E-03  3.37280855405627930E-03
  3.45818250009147796E-03  3.54571723006948721E-03  3.63546742045398876E-03
  3.72748913061013345E-03  3.82183983775386243E-03  3.91857847277414430E-03
  4.01776545696489081E-03  4.11946273967752317E-03  4.22373383692985823E-03
  4.33064387097975741E-03  4.44025961090518690E-03  4.55264951420061154E-03
  4.66788376942444284E-03  4.78603433991937541E-03  4.90717500863890963E-03
  5.03138142409454824E-03  5.15873114747358429E-03  5.28930370092799400E-03
  5.42318061708842603E-03  5.56044548982822118E-03  5.70118402629990386E-03
  5.84548410027511262E-03  5.99343580684392422E-03  6.14513151847667725E-03
  6.30066594250123981E-03  6.46013618002638356E-03  6.62364178634726290E-03
  6.79128483286343173E-03  6.96316997057146170E-03  7.13940449513243963E-03
  7.32009841358536705E-03  7.50536451273889089E-03  7.69531842927748903E-03
  7.89007872163011680E-03  8.08976694364213315E-03  8.29450772009813000E-03
  8.50442882414283868E-03  8.71966125664080764E-03  8.94033932752936154E-03
  9.16660073921780547E-03  9.39858667206448437E-03  9.63644187201273539E-03
  9.88031474041501517E-03  1.01303574261034559E-02  1.03867259197852630E-02
  1.06495801507756199E-02  1.09190840861806554E-02  1.11954058325386963E-02
  1.14787177400228341E-02  1.17691965092399115E-02  1.20670233007067369E-02
  1.23723838470547673E-02  1.26854685680453157E-02  1.30064726884608888E-02
  1.33355963589312562E-02  1.36730447797809192E-02  1.40190283279670869E-02
  1.43737626871849340E-02  1.47374689812099693E-02  1.51103739105717203E-02
  1.54927098926284680E-02  1.58847152051272596E-02  1.62866341333425639E-02
  1.66987171208680153E-02  1.71212209241609035E-02  1.75544087709298864E-02
  1.79985505224514002E-02  1.84539228399193296E-02  1.89208093549158018E-02
  1.93995008441150731E-02  1.98902954083166258E-02  2.03934986559030813E-02
  2.09094238908497133E-02  2.14383923053777341E-02  2.19807331773676784E-02
  2.25367840726519546E-02  2.31068910523029337E-02  2.36914088850174870E-02
  2.42907012647578559E-02  2.49051410337329596E-02  2.55351104108758678E-02
  2.61810012259285664E-02  2.68432151592847001E-02  2.75221639877107765E-02
  2.82182698360931433E-02  2.89319654353504992E-02  2.96636943866513889E-02
  3.04139114320958782E-02  3.11830827319989276E-02  3.19716861489382359E-02
  3.27802115387177961E-02  3.36091610484147152E-02  3.44590494216563195E-02
  3.53304043113187166E-02  3.62237665997910754E-02  3.71396907269975485E-02
  3.80787450263371449E-02  3.90415120687369194E-02  4.00285890149871398E-02
  4.10405879765541673E-02  4.20781363850538451E-02  4.31418773705851064E-02
  4.42324701491028024E-02  4.53505904190644044E-02  4.64969307675055163E-02
  4.76722010857891926E-02  4.88771289952244850E-02  5.01124602827535126E-02
  5.13789593469465775E-02  5.26774096545119738E-02  5.40086142075235850E-02
  5.53733960216330617E-02  5.67725986154549028E-02  5.82070865113699445E-02
  5.96777457479828258E-02  6.11854844044641619E-02  6.27312331370096926E-02
  6.43159457276691326E-02  6.59405996457768928E-02  6.76061966222202410E-02
  6.93137632368233808E-02  7.10643515190407943E-02  7.28590395622578380E-02
  7.46989321519197502E-02  7.65851614077409648E-02  7.85188874402468900E-02
  8.05012990218963165E-02  8.25336142730341005E-02  8.46170813629094909E-02
  8.67529792260194749E-02  8.89426182940140364E-02  9.11873412433921865E-02
  9.34885237592437968E-02  9.58475753152540633E-02  9.82659399702022485E-02
  1.00745097181173610E-01  1.03286562633710347E-01  1.05891889089082744E-01
  1.08562667248906120E-01  1.11300526637274785E-01  1.14107136500590997E-01
  1.16984206725266091E-01  1.19933488773424815E-01  1.22956776636769544E-01
  1.26055907808702822E-01  1.29232764274828327E-01  1.32489273521896794E-01
  1.35827409565255686E-01  1.39249193994845283E-01  1.42756697039734315E-01
  1.46352038651179461E-01  1.50037389604156773E-01  1.53814972617262735E-01
  1.57687063490873469E-01  1.61655992263369935E-01  1.65724144385252375E-01
  1.69893961910834834E-01  1.74167944707245170E-01  1.78548651680342535E-01
  1.83038702017111199E-01  1.87640776444057550E-01  1.92357618501011740E-01
  1.97192035829712342E-01  2.02146901476430052E-01  2.07225155207805461E-01
  2.12429804839013692E-01  2.17763927573198790E-01  2.23230671351087429E-01
  2.28833256209499319E-01  2.34574975647404649E-01  2.40459197997996171E-01
  2.46489367805126647E-01  2.52669007202277862E-01  2.59001717292092093E-01
  2.65491179524275145E-01  2.72141157069516471E-01  2.78955496186855667E-01
  2.85938127581697454E-01  2.93093067751432956E-01  3.00424420315401730E-01
  3.07936377325613242E-01  3.15633220554402072E-01  3.23519322754832750E-01
  3.31599148889397122E-01  3.39877257322139137E-01  3.48358300969009382E-01
  3.57047028400827415E-01  3.65948284892812892E-01  3.75067013414196182E-01
  3.84408255550913014E-01  3.93977152353940319E-01  4.03778945105205289E-01
  4.13818975992463534E-01  4.24102688683914486E-01  4.34635628792689077E-01
  4.45423444220612919E-01  4.56471885369967245E-01  4.67786805211135692E-01
  4.79374159193248606E-01  4.91240004984023704E-01  5.03390502024118058E-01
  5.15831910880296562E-01  5.28570592380710913E-01  5.41613006514496731E-01
  5.54965711076729096E-01  5.68635360038594939E-01  5.82628701621344391E-01
  5.96952576051247630E-01  6.11613912971396112E-01  6.26619728484653749E-01
  6.41977121800579864E-01  6.57693271457453155E-01  6.73775431088864618E-01
  6.90230924702538773E-01  7.07067141437184743E-01  7.24291529761241559E-01
  7.41911591075326671E-01  7.59934872678086237E-01  7.78368960053168912E-01
  7.97221468432415148E-01  8.16500033588217988E-01  8.36212301805572600E-01
  8.56365918981817908E-01  8.76968518799481234E-01  8.98027709915072192E-01
  9.19551062103883599E-01  9.41546091298212651E-01  9.64020243453560632E-01
  9.86980877174576388E-01  1.01043524502970383E+00  1.03439047348058577E+00
  1.05885354134951815E+00  1.08383125674541048E+00  1.10933023236596418E+00
  1.13535685909113293E+00  1.16191727778035947E+00  1.18901734918363045E+00
  1.21666262187420116E+00  1.24485829810870730E+00  1.27360919751869250E+00
  1.30291971853602262E+00  1.33279379745356352E+00  1.36323486502179247E+00
  1.39424580048161761E+00  1.42582888293423293E+00  1.45798573995030734E+00
  1.49071729332124314E+00  1.52402370185849079E+00  1.55790430115030198E+00
  1.59235754018960884E+00  1.62738091479228197E+00  1.66297089773187889E+00
  1.69912286552515401E+00  1.73583102181243776E+00  1.77308831728839866E+00
  1.81088636615206156E+00  1.84921535906030954E+00  1.88806397258666570E+00
  1.92741927520712086E+00  1.96726662985740508E+00  2.00758959313142826E+00
  2.04836981121906314E+00  2.08958691271310215E+00  2.13121839845026795E+00
  2.17323952858997860E+00  2.21562320717722683E+00  2.25833986448266888E+00
  2.30135733746415516E+00  2.34464074874952022E+00  2.38815238460068402E+00
  2.43185157238435412E+00  2.47569455814527073E+00  2.51963438495199776E+00
  2.56362077276630362E+00  2.60760000067283526E+00  2.65151479239642596E+00
  2.69530420613001409E+00  2.73890352979679585E+00  2.78224418297532416E+00
  2.82525362682564030E+00  2.86785528346768137E+00  2.90996846637929885E+00
  2.95150832349995973E+00  2.99238579484623379E+00  3.03250758656564079E+00
  3.07177616347527849E+00  3.11008976224884881E+00  3.14734242752939153E+00
  3.18342407335261735E+00  3.21822057236542713E+00  3.25161387541380087E+00
  3.28348216415060756E+00  3.31370003937471891E+00  3.34213874785461940E+00
  3.36866645040912704E+00  3.39314853401260974E+00  3.41544797066141692E+00
  3.43542572564304871E+00  3.45294121776839802E+00  3.46785283397315158E+00
  3.48001850048816497E+00  3.48929631253315886E+00  3.49554522418347879E+00
  3.49862579969493348E+00  3.49840102714303836E+00  3.49473719473662481E+00
  3.48750482959848229E+00  3.47657969816508539E+00  3.46184386664129695E+00
  3.44318681915383396E+00  3.42050663037861202E+00  3.39371118847382558E+00
  3.36271946313460424E+00  3.32746281250099285E+00  3.28788632150384430E+00
  3.24395016303045036E+00  3.19563097204217295E+00  3.14292322149033376E+00
  3.08584058756645874E+00  3.02441729050213315E+00  2.95870939581707759E+00
  2.88879605962429586E+00  2.81478070033565819E+00  2.73679207785650958E+00
  2.65498526032518445E+00  2.56954245733899223E+00  2.48067369766318535E+00
  2.38861732858970655E+00  2.29364031340056096E+00  2.19603830280954071E+00
  2.09613545580973915E+00  1.99428398504439763E+00  1.89086340164318290E+00
  1.78627943442238268E+00  1.68096259843212259E+00  1.57536638804625517E+00
  1.46996507013592237E+00  1.36525105336161934E+00  1.26173181029270065E+00
  1.15992632997274692E+00  1.06036107978139804E+00  9.63565457127583569E-01
  8.70066713828156368E-01  7.80384339228323953E-01  6.95023892533703780E-01
  6.14470280866580731E-01  5.39180487751615756E-01  4.69575767627858798E-01
  4.06033336788176713E-01  3.48877610029378393E-01  2.98371056426381731E-01
  2.54704778917102248E-01  2.17988961068190212E-01  1.88243372194470404E-01
  1.65388180165918219E-01  1.49235391031923043E-01  1.39481317231309410E-01
  1.35700572719685247E-01  1.37342204746931013E-01  1.43728698978725367E-01
  1.54058737724980882E-01  1.67414750665401901E-01  1.82776474163540675E-01
  1.99041929889296643E-01  2.15057447627692577E-01  2.29658593732928157E-01
  2.41724130551591698E-01  2.50245430803312963E-01  2.54414115089818926E-01
  2.53731084334380685E-01  2.48140597991923756E-01  2.38193614893365185E-01
  2.25182537649736086E-01  2.09882576064528259E-01  1.92016162504965116E-01
  1.71258850201498364E-01  1.47292675647760468E-01  1.19810166534696533E-01
  8.85152506187391469E-02  5.30688549033267662E-02  1.21571898536827743E-02
  4.85535454955490157E-04  3.50173817502612788E-05  0.00000000000000000E+00
  0.00000000000000000E+00  0.00000000000000000E+00  0.00000000000000000E+00
  0.00000000000000000E+00  0.00000000000000000E+00  0.00000000000000000E+00
  0.00000000000000000E+00  0.00000000000000000E+00  0.00000000000000000E+00
  0.00000000000000000E+00  0.00000000000000000E+00  0.00000000000000000E+00
  0.00000000000000000E+00  0.00000000000000000E+00  0.00000000000000000E+00
  0.00000000000000000E+00  0.00000000000000000E+00  0.00000000000000000E+00
  0.00000000000000000E+00  0.00000000000000000E+00  0.00000000000000000E+00
  0.00000000000000000E+00  0.00000000000000000E+00  0.00000000000000000E+00
  0.00000000000000000E+00  0.00000000000000000E+00  0.00000000000000000E+00
  0.00000000000000000E+00  0.00000000000000000E+00  0.00000000000000000E+00
  0.00000000000000000E+00  0.00000000000000000E+00  0.00000000000000000E+00
  0.00000000000000000E+00  0.00000000000000000E+00  0.00000000000000000E+00
  0.00000000000000000E+00  0.00000000000000000E+00  0.00000000000000000E+00
  0.00000000000000000E+00  0.00000000000000000E+00  0.00000000000000000E+00
  0.00000000000000000E+00  0.00000000000000000E+00  0.00000000000000000E+00
  0.00000000000000000E+00  0.00000000000000000E+00  0.00000000000000000E+00
  0.00000000000000000E+00  0.00000000000000000E+00  0.00000000000000000E+00
  0.00000000000000000E+00  0.00000000000000000E+00  0.00000000000000000E+00
  0.00000000000000000E+00  0.00000000000000000E+00  0.00000000000000000E+00
  0.00000000000000000E+00  0.00000000000000000E+00  0.00000000000000000E+00
  0.00000000000000000E+00  0.00000000000000000E+00  0.00000000000000000E+00
  0.00000000000000000E+00  0.00000000000000000E+00  0.00000000000000000E+00
  0.00000000000000000E+00  0.00000000000000000E+00  0.00000000000000000E+00
  0.00000000000000000E+00  0.00000000000000000E+00  0.00000000000000000E+00
  0.00000000000000000E+00  0.00000000000000000E+00  0.00000000000000000E+00
  0.00000000000000000E+00  0.00000000000000000E+00  0.00000000000000000E+00
  0.00000000000000000E+00  0.00000000000000000E+00  0.00000000000000000E+00
  0.00000000000000000E+00  0.00000000000000000E+00  0.00000000000000000E+00
  0.00000000000000000E+00  0.00000000000000000E+00  0.00000000000000000E+00
  0.00000000000000000E+00  0.00000000000000000E+00  0.00000000000000000E+00
  0.00000000000000000E+00  0.00000000000000000E+00  0.00000000000000000E+00
  0.00000000000000000E+00  0.00000000000000000E+00  0.00000000000000000E+00
  0.00000000000000000E+00  0.00000000000000000E+00  0.00000000000000000E+00
  0.00000000000000000E+00  0.00000000000000000E+00  0.00000000000000000E+00
  0.00000000000000000E+00  0.00000000000000000E+00  0.00000000000000000E+00
  0.00000000000000000E+00  0.00000000000000000E+00  0.00000000000000000E+00
  0.00000000000000000E+00  0.00000000000000000E+00  0.00000000000000000E+00
  0.00000000000000000E+00  0.00000000000000000E+00  0.00000000000000000E+00
  0.00000000000000000E+00  0.00000000000000000E+00  0.00000000000000000E+00
  0.00000000000000000E+00  0.00000000000000000E+00  0.00000000000000000E+00
  0.00000000000000000E+00  0.00000000000000000E+00  0.00000000000000000E+00
  0.00000000000000000E+00  0.00000000000000000E+00  0.00000000000000000E+00
  0.00000000000000000E+00  0.00000000000000000E+00  0.00000000000000000E+00
  0.00000000000000000E+00  0.00000000000000000E+00  0.00000000000000000E+00
  0.00000000000000000E+00  0.00000000000000000E+00  0.00000000000000000E+00
  0.00000000000000000E+00  0.00000000000000000E+00  0.00000000000000000E+00
  0.00000000000000000E+00  0.00000000000000000E+00  0.00000000000000000E+00
  0.00000000000000000E+00  0.00000000000000000E+00  0.00000000000000000E+00
  0.00000000000000000E+00  0.00000000000000000E+00  0.00000000000000000E+00
  0.00000000000000000E+00  0.00000000000000000E+00  0.00000000000000000E+00
  0.00000000000000000E+00  0.00000000000000000E+00  0.00000000000000000E+00
  0.00000000000000000E+00  0.00000000000000000E+00  0.00000000000000000E+00
  0.00000000000000000E+00  0.00000000000000000E+00  0.00000000000000000E+00
  0.00000000000000000E+00  0.00000000000000000E+00  0.00000000000000000E+00
                              </PP_BETA.3>
 <PP_BETA.4 type="real" size="   999" angular_momentum="1" columns="3" cutoff_radius_index="   836" norm_conserving_radius="    1.903803" label= "0P">
  1.17741733727866255E-08  1.20722374088443078E-08  1.23778477982141695E-08
  1.26911955086355542E-08  1.30124760082421009E-08  1.33418896860237289E-08
  1.36796420313474825E-08  1.40259439249686350E-08  1.43810116310376615E-08
  1.47450669007296019E-08  1.51183376465309230E-08  1.55010581823699485E-08
  1.58934688371571907E-08  1.62958155319129902E-08  1.67083486943492415E-08
  1.71313246843331816E-08  1.75650065139762844E-08  1.80096655316174881E-08
  1.84655807476691267E-08  1.89330382214992352E-08  1.94123303591091121E-08
  1.99037563230661473E-08  2.04076228316405075E-08  2.09242446225774295E-08
  2.14539446156565275E-08  2.19970539074136665E-08  2.25539119042265899E-08
  2.31248665483417774E-08  2.37102746374277423E-08  2.43105024782740255E-08
  2.49259259247227035E-08  2.55569301092138567E-08  2.62039086637580806E-08
  2.68672647787234687E-08  2.75474124349752023E-08  2.82447773717853434E-08
  2.89597962637959545E-08  2.96929163531761706E-08  3.04445958049148946E-08
  3.12153043806261890E-08  3.20055237784206703E-08  3.28157478904303987E-08
  3.36464828929985769E-08  3.44982475529112432E-08  3.53715740150620165E-08
  3.62670087951766694E-08  3.71851124298817089E-08  3.81264592904861748E-08
  3.90916380399645901E-08  4.00812509718065520E-08  4.10959136487461292E-08
  4.21362584153095222E-08  4.32029384967404667E-08  4.42966242285144895E-08
  4.54179990800998822E-08  4.65677622613833370E-08  4.77466316427927057E-08
  4.89553439292376974E-08  5.01946542930465885E-08  5.14653368663931682E-08
  5.27681867713521808E-08  5.41040210186638178E-08  5.54736748485007226E-08
  5.68780008214567558E-08  5.83178743709468025E-08  5.97941956388879729E-08
  6.13078889416174764E-08  6.28599036176782765E-08  6.44512104683463078E-08
  6.60828015730903190E-08  6.77556959019806298E-08  6.94709400390100308E-08
  7.12296055980834853E-08  7.30327906639349657E-08  7.48816242308496524E-08
  7.67772637876185104E-08  7.87208898384147063E-08  8.07137151361719175E-08
  8.27569918049649483E-08  8.48519980241547364E-08  8.70000372358678650E-08
  8.92024524587531688E-08  9.14606234105546029E-08  9.37759603949785763E-08
  9.61499092208328298E-08  9.85839536705204589E-08  1.01079616618515501E-07
  1.03638459314977965E-07  1.06262079294766219E-07  1.08952116125875904E-07
  1.11710252782911018E-07  1.14538211754287420E-07  1.17437760005497944E-07
  1.20410711883638551E-07  1.23458923671931285E-07  1.26584299858010167E-07
  1.29788798319692714E-07  1.33074419801301482E-07  1.36443214368915600E-07
  1.39897288275882665E-07  1.43438801942681877E-07  1.47069970895843277E-07
  1.50793066157425381E-07  1.54610411981537506E-07  1.58524392968839690E-07
  1.62537456496549568E-07  1.66652111236021318E-07  1.70870928956930786E-07
  1.75196548114078985E-07  1.79631673520499504E-07  1.84179069569579771E-07
  1.88841582407671700E-07  1.93622130091015338E-07  1.98523694379078941E-07
  2.03549340180598417E-07  2.08702217775993543E-07  2.13985543377681116E-07
  2.19402608379827153E-07  2.24956810059433304E-07  2.30651619798966594E-07
  2.36490593667499367E-07  2.42477382686467652E-07  2.48615729074195193E-07
  2.54909462824187944E-07  2.61362524589932352E-07  2.67978946284843558E-07
  2.74762862951832587E-07  2.81718517115925225E-07  2.88850257074435536E-07
  2.96162537774283105E-07  3.03659922343515207E-07  3.11347109592128374E-07
  3.19228899555945162E-07  3.27310215012446590E-07  3.35596112791692889E-07
  3.44091768357584713E-07  3.52802488381000087E-07  3.61733724640113075E-07
  3.70891054475517434E-07  3.80280203990715897E-07  3.89907043556532935E-07
  3.99777579755765574E-07  4.09897998796794128E-07  4.20274611740879484E-07
  4.30913915151714506E-07  4.41822556124990964E-07  4.53007336910752830E-07
  4.64475269576963352E-07  4.76233518629341324E-07  4.88289421442422994E-07
  5.00650531242894897E-07  5.13324555602544775E-07  5.26319419749076738E-07
  5.39643253456782291E-07  5.53304384883141624E-07  5.67311351349293775E-07
  5.81672900828169025E-07  5.96398014100187496E-07  6.11495896578107959E-07
  6.26975985939946970E-07  6.42847955175555952E-07  6.59121722822066428E-07
  6.75807460008598773E-07  6.92915601280078661E-07  7.10456835460501562E-07
  7.28442124143943196E-07  7.46882722307628816E-07  7.65790142851227417E-07
  7.85176203051597844E-07  8.05053025488599931E-07  8.25433031397047154E-07
  8.46328956139764625E-07  8.67753870359119028E-07  8.89721152447083047E-07
  9.12244540653298221E-07  9.35338108487159170E-07  9.59016291634980538E-07
  9.83293892955532199E-07  1.00818608731203611E-06  1.03370842444286992E-06
  1.05987685951311395E-06  1.08670775459213201E-06  1.11421787871298693E-06
  1.14242441813484142E-06  1.17134501598384300E-06  1.20099773872109129E-06
  1.23140112585309657E-06  1.26257416634099438E-06  1.29453636480102555E-06
  1.32730768261478996E-06  1.36090861650925599E-06  1.39536016014773771E-06
  1.43068384178173735E-06  1.46690174077013172E-06  1.50403650670949723E-06
  1.54211134611991350E-06  1.58115004838044343E-06  1.62117701536850675E-06
  1.66221727672825853E-06  1.70429647130819563E-06  1.74744090003851852E-06
  1.79167752952176684E-06  1.83703402101677973E-06  1.88353871305327179E-06
  1.93122067793918523E-06  1.98010970931719549E-06  2.03023637238555274E-06
  2.08163199729670805E-06  2.13432870462738289E-06  2.18835943071496409E-06
  2.24375794711806627E-06  2.30055888164146257E-06  2.35879773596220244E-06
  2.41851090817870318E-06  2.47973572323387452E-06  2.54251045228023536E-06
  2.60687431988638874E-06  2.67286756681029050E-06  2.74053143177889893E-06
  2.80990821460048487E-06  2.88104127518299971E-06  2.95397506818476392E-06
  3.02875518388951405E-06  3.10542836022057872E-06  3.18404253005908885E-06
  3.26464680819028978E-06  3.34729158773015573E-06  3.43202853027893332E-06
  3.51891058905583098E-06  3.60799206547157578E-06  3.69932864474761206E-06
  3.79297740997775982E-06  3.88899689404543602E-06  3.98744711659594396E-06
  4.08838960173505898E-06  4.19188745444692853E-06  4.29800535115408356E-06
  4.40680962343580074E-06  4.51836827618577923E-06  4.63275103487762182E-06
  4.75002939777267877E-06  4.87027666121707900E-06  4.99356797664795714E-06
  5.11998041349706444E-06  5.24959297885498260E-06  5.38248668739106433E-06
  5.51874459054924450E-06  5.65845186439301566E-06  5.80169581995008049E-06
  5.94856599470207871E-06  6.09915418050467430E-06  6.25355449817273929E-06
  6.41186345484204664E-06  6.57417999324336045E-06  6.74060556161502347E-06
  6.91124419219775954E-06  7.08620252485940330E-06  7.26558991854710240E-06
  7.44951848479030643E-06  7.63810319707229197E-06  7.83146190543456399E-06
  8.02971547703642971E-06  8.23298781803930260E-06  8.44140598029371573E-06
  8.65510021961192751E-06  8.87420411102845001E-06  9.09885458932297594E-06
  9.32919207109613243E-06  9.56536050902362347E-06  9.80750752455255039E-06
  1.00557844531628562E-05  1.03103464830462077E-05  1.05713527060917306E-05
  1.08389662592037212E-05  1.11133544135545498E-05  1.13946886381296350E-05
  1.16831447936353774E-05  1.19789031647955433E-05  1.22821485980990326E-05
  1.25930706217747376E-05  1.29118635766163334E-05  1.32387267017660585E-05
  1.35738642881195365E-05  1.39174858054870018E-05  1.42698060149280984E-05
  1.46310451035845967E-05  1.50014288798669970E-05  1.53811888115840610E-05
  1.57705622505482297E-05  1.61697925626253759E-05  1.65791292762630394E-05
  1.69988282004614911E-05  1.74291516757645811E-05  1.78703686260551160E-05
  1.83227548385366216E-05  1.87865930406266934E-05  1.92621731214453337E-05
  1.97497923312865661E-05  2.02497554211696781E-05  2.07623748618878267E-05
  2.12879710379665146E-05  2.18268724526309572E-05  2.23794159031973495E-05
  2.29459467271743352E-05  2.35268190066906541E-05  2.41223957646938817E-05
  2.47330492262304072E-05  2.53591610639584272E-05  2.60011225705054901E-05
  2.66593349649757566E-05  2.73342096119721441E-05  2.80261682967921270E-05
  2.87356434808541200E-05  2.94630785662656477E-05  3.02089281890971083E-05
  3.09736584844278628E-05  3.17577473842631824E-05  3.25616849231955612E-05
  3.33859735312728352E-05  3.42311283686560079E-05  3.50976776351538404E-05
  3.59861628826298665E-05  3.68971393850266895E-05  3.78311764688402162E-05
  3.87888578664311804E-05  3.97707820928770944E-05  4.07775628015782625E-05
  4.18098291862483963E-05  4.28682263658713433E-05  4.39534157850707179E-05
  4.50660756190145208E-05  4.62069012366906338E-05  4.73766055769223973E-05
  4.85759196492093127E-05  4.98055929355194514E-05  5.10663939029715354E-05
  5.23591104887951469E-05  5.36845505312816100E-05  5.50435423468679919E-05
  5.64369352012908856E-05  5.78655998554847785E-05  5.93304291216415779E-05
  6.08323383816426554E-05  6.23722662161877985E-05  6.39511749401339917E-05
  6.55700512217774408E-05  6.72299067086065688E-05  6.89317786562210926E-05
  7.06767305502392933E-05  7.24658528165700262E-05  7.43002634557706713E-05
  7.61811087696408581E-05  7.81095640792525529E-05  8.00868344314172243E-05
  8.21141553846885079E-05  8.41927937566795486E-05  8.63240484231783179E-05
  8.85092511377603974E-05  9.07497673341401247E-05  9.30469970335299454E-05
  9.54023756636218385E-05  9.78173749579370973E-05  1.00293503933775646E-04
  1.02832309772973176E-04  1.05435378784076475E-04  1.08104337458640832E-04
  1.10840853427745820E-04  1.13646636506055344E-04  1.16523439782262387E-04
  1.19473060703204683E-04  1.22497342207661164E-04  1.25598173834357186E-04
  1.28777492974907075E-04  1.32037285992592533E-04  1.35379589546970872E-04
  1.38806491797810130E-04  1.42320133770049541E-04  1.45922710610171607E-04
  1.49616473050698370E-04  1.53403728741691186E-04  1.57286843711099573E-04
  1.61268243846287429E-04  1.65350416420796480E-04  1.69535911612761443E-04
  1.73827344128114067E-04  1.78227394796394184E-04  1.82738812286433209E-04
  1.87364414783081366E-04  1.92107091758688845E-04  1.96969805781983961E-04
  2.01955594350538431E-04  2.07067571797994168E-04  2.12308931234340129E-04
  2.17682946520681624E-04  2.23192974326106978E-04  2.28842456221078699E-04
  2.34634920823329862E-04  2.40573985965767827E-04  2.46663361004349508E-04
  2.52906849089542336E-04  2.59308349548620495E-04  2.65871860312742530E-04
  2.72601480415987836E-04  2.79501412540360305E-04  2.86575965636834775E-04
  2.93829557610852140E-04  3.01266718066652808E-04  3.08892091137697713E-04
  3.16710438370190403E-04  3.24726641694858065E-04  3.32945706468706199E-04
  3.41372764562066216E-04  3.50013077619659165E-04  3.58872040249994461E-04
  3.67955183442351963E-04  3.77268177988776814E-04  3.86816838023869487E-04
  3.96607124603322065E-04  4.06645149484518588E-04  4.16937178839306411E-04
  4.27489637232892077E-04  4.38309111552930746E-04  4.49402355152373552E-04
  4.60776292017148290E-04  4.72438021080423206E-04  4.84394820647531454E-04
  4.96654152890021951E-04  5.09223668510060297E-04  5.22111211470620111E-04
  5.35324823875532141E-04  5.48872750988542240E-04  5.62763446286574081E-04
  5.77005576790063312E-04  5.91608028381076221E-04  6.06579911342904998E-04
  6.21930566007517795E-04  6.37669568552162161E-04  6.53806736926513025E-04
  6.70352136972230902E-04  6.87316088623115239E-04  7.04709172316563015E-04
  7.22542235562036519E-04  7.40826399673111540E-04  7.59573066602483985E-04
  7.78793926057373860E-04  7.98500962707860101E-04  8.18706463620880935E-04
  8.39423025849190358E-04  8.60663564250887668E-04  8.82441319443774035E-04
  9.04769865997275989E-04  9.27663120855952645E-04  9.51135351922528425E-04
  9.75201186836888926E-04  9.99875622080616082E-04  1.02517403217235550E-03
  1.05111217921145827E-03  1.07770622254403626E-03  1.10497272877941840E-03
  1.13292868200454600E-03  1.16159149422008045E-03  1.19097901608997006E-03
  1.22110954796018629E-03  1.25200185106866800E-03  1.28367515915335474E-03
  1.31614919026488758E-03  1.34944415887054323E-03  1.38358078831572490E-03
  1.41858032354745946E-03  1.45446454415028531E-03  1.49125577773355738E-03
  1.52897691364429198E-03  1.56765141697215926E-03  1.60730334296801014E-03
  1.64795735177996304E-03  1.68963872354315663E-03  1.73237337386753518E-03
  1.77618786969096403E-03  1.82110944552969604E-03  1.86716602010255435E-03
  1.91438621343773484E-03  1.96279936426361221E-03  2.01243554796884340E-03
  2.06332559493495934E-03  2.11550110928092642E-03  2.16899448815502252E-03
  2.22383894140870328E-03  2.28006851182441239E-03  2.33771809577332235E-03
  2.39682346441672141E-03  2.45742128540529401E-03  2.51954914512361522E-03
  2.58324557143615498E-03  2.64855005702226446E-03  2.71550308325606282E-03
  2.78414614465980577E-03  2.85452177398651512E-03  2.92667356783229277E-03
  3.00064621294255209E-03  3.07648551308950437E-03  3.15423841663971987E-03
  3.23395304475858521E-03  3.31567872029930053E-03  3.39946599734696408E-03
  3.48536669153965556E-03  3.57343391105181037E-03  3.66372208832017399E-03
  3.75628701252796616E-03  3.85118586290689137E-03  3.94847724272072778E-03
  4.04822121415449824E-03  4.15047933397992650E-03  4.25531469005142361E-03
  4.36279193866500204E-03  4.47297734280879648E-03  4.58593881127090236E-03
  4.70174593870781136E-03  4.82047004660271158E-03  4.94218422517546645E-03
  5.06696337629252130E-03  5.19488425731416507E-03  5.32602552601600405E-03
  5.46046778650096168E-03  5.59829363613275569E-03  5.73958771361004344E-03
  5.88443674809257904E-03  6.03292960941415653E-03  6.18515735948568183E-03
  6.34121330482039381E-03  6.50119305023427480E-03  6.66519455377263727E-03
  6.83331818283933710E-03  7.00566677156948779E-03  7.18234567944935239E-03
  7.36346285129810610E-03  7.54912887847572316E-03  7.73945706146979880E-03
  7.93456347383820690E-03  8.13456702751617737E-03  8.33958953956251241E-03
  8.54975580025049003E-03  8.76519364272707567E-03  8.98603401401216334E-03
  9.21241104760531400E-03  9.44446213751582407E-03  9.68232801390588038E-03
  9.92615282022187191E-03  1.01760841919496508E-02  1.04322733369595737E-02
  1.06948751174634239E-02  1.09640481336231929E-02  1.12399548088084385E-02
  1.15227614765306043E-02  1.18126384690772721E-02  1.21097602078443362E-02
  1.24143052954521285E-02  1.27264566095099240E-02  1.30464013982029992E-02
  1.33743313776560502E-02  1.37104428310092022E-02  1.40549367094102030E-02
  1.44080187346266354E-02  1.47698995036276235E-02  1.51407945949038891E-02
  1.55209246766102784E-02  1.59105156164987653E-02  1.63097985937174263E-02
  1.67190102123776323E-02  1.71383926169152052E-02  1.75681936093093106E-02
  1.80086667679891545E-02  1.84600715685581777E-02  1.89226735063109837E-02
  1.93967442203293559E-02  1.98825616194252854E-02  2.03804100096522320E-02
  2.08905802234850176E-02  2.14133697505644871E-02  2.19490828699787609E-02
  2.24980307840657971E-02  2.30605317536034561E-02  2.36369112343641843E-02
  2.42275020150135752E-02  2.48326443561611293E-02  2.54526861305675971E-02
  2.60879829644088124E-02  2.67388983794247838E-02  2.74058039359231058E-02
  2.80890793764740944E-02  2.87891127701421744E-02  2.95063006572043804E-02
  3.02410481940496474E-02  3.09937692982630228E-02  3.17648867935613338E-02
  3.25548325545170839E-02  3.33640476507383252E-02  3.41929824903555446E-02
  3.50420969626378184E-02  3.59118605792545231E-02  3.68027526141975966E-02
  3.77152622418457720E-02  3.86498886729318078E-02  3.96071412881176810E-02
  4.05875397687314662E-02  4.15916142243594675E-02  4.26199053168022507E-02
  4.36729643800265327E-02  4.47513535356494074E-02  4.58556458033218470E-02
  4.69864252057363430E-02  4.81442868674290467E-02  4.93298371069384317E-02
  5.05436935216866667E-02  5.17864850647976049E-02  5.30588521132689950E-02
  5.43614465266467548E-02  5.56949316954485005E-02  5.70599825785043785E-02
  5.84572857281776617E-02  5.98875393027299904E-02  6.13514530646173187E-02
  6.28497483637790455E-02  6.43831581047116519E-02  6.59524266961951794E-02
  6.75583099823238997E-02  6.92015751536398521E-02  7.08830006368008358E-02
  7.26033759614190394E-02  7.43635016024759288E-02  7.61641887965740921E-02
  7.80062593304304414E-02  7.98905452996504090E-02  8.18178888358976758E-02
  8.37891418004054339E-02  8.58051654417039261E-02  8.78668300153087889E-02
  8.99750143629512028E-02  9.21306054489031551E-02  9.43344978507617005E-02
  9.65875932019316930E-02  9.88907995829249875E-02  1.01245030858417323E-01
  1.03651205956951153E-01  1.06110248089820322E-01  1.08623083905810422E-01
  1.11190642578007731E-01  1.13813854818900620E-01  1.16493651819745483E-01
  1.19230964110044926E-01  1.22026720332753802E-01  1.24881845930619503E-01
  1.27797261738943901E-01  1.30773882479799625E-01  1.33812615152479469E-01
  1.36914357314866453E-01  1.40079995250126238E-01  1.43310402012863686E-01
  1.46606435348745123E-01  1.49968935481430754E-01  1.53398722760117040E-01
  1.56896595161302693E-01  1.60463325637561244E-01  1.64099659306451012E-01
  1.67806310472038395E-01  1.71583959471567848E-01  1.75433249339516789E-01
  1.79354782281027220E-01  1.83349115946707164E-01  1.87416759500399488E-01
  1.91558169471474582E-01  1.95773745383196918E-01  2.00063825148344726E-01
  2.04428680223441850E-01  2.08868510512712297E-01  2.13383439013034221E-01
  2.17973506190973304E-01  2.22638664083447763E-01  2.27378770113095791E-01
  2.32193580610361106E-01  2.37082744033893428E-01  2.42045793881591365E-01
  2.47082141284970885E-01  2.52191067279892434E-01  2.57371714747558378E-01
  2.62623080020096600E-01  2.67944004146321413E-01  2.73333163813743951E-01
  2.78789061924582193E-01  2.84310017824394079E-01  2.89894157183751944E-01
  2.95539401534909874E-01  3.01243457467408327E-01  3.07003805488626380E-01
  3.12817688557828433E-01  3.18682100304799432E-01  3.24593772947130765E-01
  3.30549164923733152E-01  3.36544448265421015E-01  3.42575495727819479E-01
  3.48637867715845984E-01  3.54726799034217055E-01  3.60837185503297131E-01
  3.66963570485733304E-01  3.73100131375182942E-01  3.79240666105393587E-01
  3.85378579745168315E-01  3.91506871252531363E-01  3.97618120469842518E-01
  4.03704475450783640E-01  4.09757640219723107E-01  4.15768863074342632E-01
  4.21728925553307432E-01  4.27628132202550248E-01  4.33456301285784829E-01
  4.39202756598078448E-01  4.44856320554495477E-01  4.50405308740341126E-01
  4.55837526123856418E-01  4.61140265147697792E-01  4.66300305930804737E-01
  4.71303918828581636E-01  4.76136869615047142E-01  4.80784427567316985E-01
  4.85231376749062970E-01  4.89462030804046933E-01  4.93460251588209109E-01
  4.97209471982902551E-01  5.00692723245718341E-01  5.03892667267671457E-01
  5.06791634116550371E-01  5.09371665254971351E-01  5.11614562828067609E-01
  5.13501945418886385E-01  5.15015310669256099E-01  5.16136105159483716E-01
  5.16845801930817528E-01  5.17125986019711492E-01  5.16958448351711120E-01
  5.16325288314119391E-01  5.15209025290672584E-01  5.13592719395244424E-01
  5.11460101586684424E-01  5.08795713280518869E-01  5.05585055494400581E-01
  5.01814747473205203E-01  4.97472694634205181E-01  4.92548265551239428E-01
  4.87032477561454458E-01  4.80918190423404501E-01  4.74200307285923606E-01
  4.66875982028067682E-01  4.58944831831043121E-01  4.50409153612459145E-01
  4.41274142700807115E-01  4.31548111861417949E-01  4.21242708497533147E-01
  4.10373127544814698E-01  3.98958317254888173E-01  3.87021174726003003E-01
  3.74588727688632661E-01  3.61692298693353564E-01  3.48367647482542286E-01
  3.34655086959181891E-01  3.20599567801171992E-01  3.06250726414923458E-01
  2.91662890582441381E-01  2.76895036841625364E-01  2.62010693357152880E-01
  2.47077781799927065E-01  2.32168391567141030E-01  2.17358479553526690E-01
  2.02727488642459347E-01  1.88357878134678886E-01  1.74334559489894209E-01
  1.60744231035437030E-01  1.47674605717830809E-01  1.35213526591769190E-01
  1.23447965472051613E-01  1.12462901173021074E-01  1.02340074981450604E-01
  9.31566224940331561E-02  8.49835827419007789E-02  7.78842876594910277E-02
  7.19126374827890463E-02  6.71112706346964072E-02  6.35096401389293186E-02
  6.11220126693313506E-02  5.99454110744432264E-02  5.99575267115724092E-02
  6.11146342865029474E-02  6.33495492385375697E-02  6.65696761574691848E-02
  7.06552063882558007E-02  7.54575339827451980E-02  8.07979715827951278E-02
  8.64668617111680887E-02  9.22231942805993854E-02  9.77948577776375227E-02
  1.02879669252425393E-01  1.07147346453343562E-01  1.10242603418431978E-01
  1.11789567379725535E-01  1.11397728208350644E-01  1.08669639780945723E-01
  1.03210592298521781E-01  9.46404617602472492E-02  8.26079123210738120E-02
  6.68070725732127640E-02  4.69967197164567543E-02  2.30218760899798570E-02
 -5.16246152138875782E-03 -3.74659925737402325E-02 -7.36370557650510155E-02
 -1.13237162903109853E-01 -1.55618018877046654E-01 -1.99903657923982486E-01
 -2.44981252265018906E-01 -2.89505304656556106E-01 -3.31921367804860423E-01
 -3.70517197331189763E-01 -4.03511410721197838E-01 -4.29192379395038015E-01
 -4.46123333359604801E-01 -4.53433641899233408E-01 -4.51221102021922782E-01
 -4.40988912702450664E-01 -4.23688045838335636E-01 -3.98576328918129941E-01
 -3.64781763046927054E-01 -3.21385628172949023E-01 -2.67424856118111509E-01
 -2.01887123349539954E-01 -1.23573260223896836E-01 -2.88502280508047340E-02
 -1.15436653488748217E-03 -8.32542571697197909E-05  0.00000000000000000E+00
  0.00000000000000000E+00  0.00000000000000000E+00  0.00000000000000000E+00
  0.00000000000000000E+00  0.00000000000000000E+00  0.00000000000000000E+00
  0.00000000000000000E+00  0.00000000000000000E+00  0.00000000000000000E+00
  0.00000000000000000E+00  0.00000000000000000E+00  0.00000000000000000E+00
  0.00000000000000000E+00  0.00000000000000000E+00  0.00000000000000000E+00
  0.00000000000000000E+00  0.00000000000000000E+00  0.00000000000000000E+00
  0.00000000000000000E+00  0.00000000000000000E+00  0.00000000000000000E+00
  0.00000000000000000E+00  0.00000000000000000E+00  0.00000000000000000E+00
  0.00000000000000000E+00  0.00000000000000000E+00  0.00000000000000000E+00
  0.00000000000000000E+00  0.00000000000000000E+00  0.00000000000000000E+00
  0.00000000000000000E+00  0.00000000000000000E+00  0.00000000000000000E+00
  0.00000000000000000E+00  0.00000000000000000E+00  0.00000000000000000E+00
  0.00000000000000000E+00  0.00000000000000000E+00  0.00000000000000000E+00
  0.00000000000000000E+00  0.00000000000000000E+00  0.00000000000000000E+00
  0.00000000000000000E+00  0.00000000000000000E+00  0.00000000000000000E+00
  0.00000000000000000E+00  0.00000000000000000E+00  0.00000000000000000E+00
  0.00000000000000000E+00  0.00000000000000000E+00  0.00000000000000000E+00
  0.00000000000000000E+00  0.00000000000000000E+00  0.00000000000000000E+00
  0.00000000000000000E+00  0.00000000000000000E+00  0.00000000000000000E+00
  0.00000000000000000E+00  0.00000000000000000E+00  0.00000000000000000E+00
  0.00000000000000000E+00  0.00000000000000000E+00  0.00000000000000000E+00
  0.00000000000000000E+00  0.00000000000000000E+00  0.00000000000000000E+00
  0.00000000000000000E+00  0.00000000000000000E+00  0.00000000000000000E+00
  0.00000000000000000E+00  0.00000000000000000E+00  0.00000000000000000E+00
  0.00000000000000000E+00  0.00000000000000000E+00  0.00000000000000000E+00
  0.00000000000000000E+00  0.00000000000000000E+00  0.00000000000000000E+00
  0.00000000000000000E+00  0.00000000000000000E+00  0.00000000000000000E+00
  0.00000000000000000E+00  0.00000000000000000E+00  0.00000000000000000E+00
  0.00000000000000000E+00  0.00000000000000000E+00  0.00000000000000000E+00
  0.00000000000000000E+00  0.00000000000000000E+00  0.00000000000000000E+00
  0.00000000000000000E+00  0.00000000000000000E+00  0.00000000000000000E+00
  0.00000000000000000E+00  0.00000000000000000E+00  0.00000000000000000E+00
  0.00000000000000000E+00  0.00000000000000000E+00  0.00000000000000000E+00
  0.00000000000000000E+00  0.00000000000000000E+00  0.00000000000000000E+00
  0.00000000000000000E+00  0.00000000000000000E+00  0.00000000000000000E+00
  0.00000000000000000E+00  0.00000000000000000E+00  0.00000000000000000E+00
  0.00000000000000000E+00  0.00000000000000000E+00  0.00000000000000000E+00
  0.00000000000000000E+00  0.00000000000000000E+00  0.00000000000000000E+00
  0.00000000000000000E+00  0.00000000000000000E+00  0.00000000000000000E+00
  0.00000000000000000E+00  0.00000000000000000E+00  0.00000000000000000E+00
  0.00000000000000000E+00  0.00000000000000000E+00  0.00000000000000000E+00
  0.00000000000000000E+00  0.00000000000000000E+00  0.00000000000000000E+00
  0.00000000000000000E+00  0.00000000000000000E+00  0.00000000000000000E+00
  0.00000000000000000E+00  0.00000000000000000E+00  0.00000000000000000E+00
  0.00000000000000000E+00  0.00000000000000000E+00  0.00000000000000000E+00
  0.00000000000000000E+00  0.00000000000000000E+00  0.00000000000000000E+00
  0.00000000000000000E+00  0.00000000000000000E+00  0.00000000000000000E+00
  0.00000000000000000E+00  0.00000000000000000E+00  0.00000000000000000E+00
  0.00000000000000000E+00  0.00000000000000000E+00  0.00000000000000000E+00
  0.00000000000000000E+00  0.00000000000000000E+00  0.00000000000000000E+00
  0.00000000000000000E+00  0.00000000000000000E+00  0.00000000000000000E+00
  0.00000000000000000E+00  0.00000000000000000E+00  0.00000000000000000E+00
  0.00000000000000000E+00  0.00000000000000000E+00  0.00000000000000000E+00
  0.00000000000000000E+00  0.00000000000000000E+00  0.00000000000000000E+00
                              </PP_BETA.4>
   <PP_DIJ type="real" size="   16" columns="3">
  6.57132301664757446E-01 -3.05351697900060115E+00  0.00000000000000000E+00
  0.00000000000000000E+00 -3.05351697900060204E+00  1.30626497046732091E+01
  0.00000000000000000E+00  0.00000000000000000E+00  0.00000000000000000E+00
  0.00000000000000000E+00  2.69228046834639967E-01  1.24996258719676367E+00
  0.00000000000000000E+00  0.00000000000000000E+00  1.24996258719676456E+00
  4.89896353186660427E+00
                                       </PP_DIJ>
  <PP_AUGMENTATION q_with_l="T" nqf="0" cutoff_r="  1.9038026E+00" cutoff_r_index="   836" iraug="   836" nqlc="  3" lmax_aug="  2" shape="SINC**2" augmentation_epsilon="1.d-12">
    <PP_Q type="real" size="   16" columns="3">
 -3.17411906094536345E-01 -2.77130576179142107E-01  0.00000000000000000E+00
  0.00000000000000000E+00 -2.77130576179142107E-01 -2.19598512133835660E-01
  0.00000000000000000E+00  0.00000000000000000E+00  0.00000000000000000E+00
  0.00000000000000000E+00 -5.18396430842807190E-02  1.11780095505282256E-01
  0.00000000000000000E+00  0.00000000000000000E+00  1.11780095505282256E-01
 -3.67251118170605240E-01
                                       </PP_Q>
    <PP_MULTIPOLES type="real" size="    48" columns="3">
 -3.17411906094536345E-01 -2.77130576179142107E-01  0.00000000000000000E+00
  0.00000000000000000E+00 -2.77130576179142107E-01 -2.19598512133835660E-01
  0.00000000000000000E+00  0.00000000000000000E+00  0.00000000000000000E+00
  0.00000000000000000E+00 -5.18396430842807190E-02  1.11780095505282256E-01
  0.00000000000000000E+00  0.00000000000000000E+00  1.11780095505282256E-01
 -3.67251118170605240E-01  0.00000000000000000E+00  0.00000000000000000E+00
 -1.34434039297281011E-01  1.81753916267793580E-01  0.00000000000000000E+00
  0.00000000000000000E+00 -2.85792569923988549E-01  5.98042034127910682E-01
 -1.34434039297281011E-01 -2.85792569923988549E-01  0.00000000000000000E+00
  0.00000000000000000E+00  1.81753916267793580E-01  5.98042034127910682E-01
  0.00000000000000000E+00  0.00000000000000000E+00  0.00000000000000000E+00
  0.00000000000000000E+00  0.00000000000000000E+00  0.00000000000000000E+00
  0.00000000000000000E+00  0.00000000000000000E+00  0.00000000000000000E+00
  0.00000000000000000E+00  0.00000000000000000E+00  0.00000000000000000E+00
 -6.72051852721443493E-02  2.25194694322219863E-01  0.00000000000000000E+00
  0.00000000000000000E+00  2.25194694322219863E-01 -9.36231957291861039E-01
                                       </PP_MULTIPOLES>
 <PP_QIJL.1.1.0 type="real" size="   999" columns="3" first_index=" 1" second_index=" 1" composite_index=" 1" angular_momentum="0">
 -7.39623942322812899E-09 -7.58347611460992573E-09 -7.77545272534709585E-09
 -7.97228924706662952E-09 -8.17410870899790280E-09 -8.38103725486990529E-09
 -8.59320422175519272E-09 -8.81074222090970396E-09 -9.03378722065911541E-09
 -9.26247863138356581E-09 -9.49695939265351374E-09 -9.73737606257164782E-09
 -9.98387890937652043E-09 -1.02366220053650301E-08 -1.04957633231926165E-08
 -1.07614648346112474E-08 -1.10338926117071139E-08 -1.13132169307009670E-08
 -1.15996123783763029E-08 -1.18932579612018979E-08 -1.21943372172164491E-08
 -1.25030383307458883E-08 -1.28195542500247552E-08 -1.31440828077949812E-08
 -1.34768268449578651E-08 -1.38179943373561546E-08 -1.41677985257656886E-08
 -1.45264580491777776E-08 -1.48941970814557266E-08 -1.52712454714507235E-08
 -1.56578388866647503E-08 -1.60542189605505453E-08 -1.64606334435401602E-08
 -1.68773363578971264E-08 -1.73045881564886549E-08 -1.77426558855768685E-08
 -1.81918133517316175E-08 -1.86523412929682784E-08 -1.91245275542181066E-08
 -1.96086672672408538E-08 -2.01050630350912753E-08 -2.06140251212561610E-08
 -2.11358716435788825E-08 -2.16709287730933067E-08 -2.22195309378914936E-08
 -2.27820210321516321E-08 -2.33587506304583560E-08 -2.39500802075479984E-08
 -2.45563793636170069E-08 -2.51780270553341619E-08 -2.58154118327003708E-08
 -2.64689320819053416E-08 -2.71389962743314965E-08 -2.78260232218619977E-08
 -2.85304423386515974E-08 -2.92526939095242939E-08 -2.99932293651655248E-08
 -3.07525115642810382E-08 -3.15310150828982950E-08 -3.23292265109920778E-08
 -3.31476447566185320E-08 -3.39867813577489825E-08 -3.48471608019976272E-08
 -3.57293208544430343E-08 -3.66338128937489735E-08 -3.75612022567933105E-08
 -3.85120685920221206E-08 -3.94870062217483982E-08 -4.04866245136226240E-08
 -4.15115482615073699E-08 -4.25624180759931244E-08 -4.36398907848007587E-08
 -4.47446398433197885E-08 -4.58773557555396430E-08 -4.70387465056369270E-08
 -4.82295380004880240E-08 -4.94504745233841082E-08 -5.07023191992323653E-08
 -5.19858544715330570E-08 -5.33018825914322770E-08 -5.46512261191540273E-08
 -5.60347284381269361E-08 -5.74532542821259753E-08 -5.89076902757582208E-08
 -6.03989454886322731E-08 -6.19279520035550849E-08 -6.34956654991136917E-08
 -6.51030658470049504E-08 -6.67511577244862193E-08 -6.84409712423311743E-08
 -7.01735625886812838E-08 -7.19500146891971623E-08 -7.37714378839216983E-08
 -7.56389706212775342E-08 -7.75537801696340345E-08 -7.95170633468864354E-08
 -8.15300472685051971E-08 -8.35939901145220878E-08 -8.57101819159325653E-08
 -8.78799453610063048E-08 -9.01046366220082570E-08 -9.23856462028500481E-08
 -9.47243998081984717E-08 -9.71223592345856222E-08 -9.95810232840787180E-08
 -1.02101928701077524E-07 -1.04686651132828445E-07 -1.07336806114253509E-07
 -1.10054050077710465E-07 -1.12840081388315557E-07 -1.15696641405473760E-07
 -1.18625515571283747E-07 -1.21628534526495047E-07 -1.24707575254715567E-07
 -1.27864562255585323E-07 -1.31101468747647985E-07 -1.34420317901674560E-07
 -1.37823184105207906E-07 -1.41312194259119532E-07 -1.44889529106988819E-07
 -1.48557424598134778E-07 -1.52318173285154323E-07 -1.56174125756837924E-07
 -1.60127692107360696E-07 -1.64181343442666095E-07 -1.68337613424981742E-07
 -1.72599099856437486E-07 -1.76968466302771129E-07 -1.81448443758138683E-07
 -1.86041832352070189E-07 -1.90751503099634669E-07 -1.95580399695913111E-07
 -2.00531540355897871E-07 -2.05608019700968270E-07 -2.10813010693122858E-07
 -2.16149766618178394E-07 -2.21621623119169310E-07 -2.27232000281227253E-07
 -2.32984404769236783E-07 -2.38882432019605808E-07 -2.44929768487523222E-07
 -2.51130193951101015E-07 -2.57487583873850624E-07 -2.64005911826962061E-07
 -2.70689251972904512E-07 -2.77541781611899815E-07 -2.84567783792856261E-07
 -2.91771649990403092E-07 -2.99157882849689911E-07 -3.06731099000672396E-07
 -3.14496031943643056E-07 -3.22457535007803975E-07 -3.30620584384741402E-07
 -3.38990282238689078E-07 -3.47571859895527809E-07 -3.56370681112518046E-07
 -3.65392245430798319E-07 -3.74642191612759071E-07 -3.84126301166429071E-07
 -3.93850501959081814E-07 -4.03820871922324391E-07 -4.14043642850971171E-07
 -4.24525204298094211E-07 -4.35272107568672853E-07 -4.46291069814340250E-07
 -4.57588978231794810E-07 -4.69172894367482625E-07 -4.81050058531262276E-07
 -4.93227894321796036E-07 -5.05714013266502074E-07 -5.18516219578968258E-07
 -5.31642515036791596E-07 -5.45101103982907681E-07 -5.58900398453525074E-07
 -5.73049023435868135E-07 -5.87555822259029174E-07 -6.02429862121274529E-07
 -6.17680439757284103E-07 -6.33317087248850846E-07 -6.49349577982678420E-07
 -6.65787932759000916E-07 -6.82642426054834044E-07 -6.99923592445784854E-07
 -7.17642233190427948E-07 -7.35809422981356163E-07 -7.54436516867145572E-07
 -7.73535157349530936E-07 -7.93117281660256870E-07 -8.13195129222135252E-07
 -8.33781249298974066E-07 -8.54888508839171835E-07 -8.76530100517853835E-07
 -8.98719550982604752E-07 -9.21470729307932901E-07 -9.44797855663757772E-07
 -9.68715510203342196E-07 -9.93238642176200074E-07 -1.01838257927171597E-06
 -1.04416303719928076E-06 -1.07059612951094531E-06 -1.09769837767273901E-06
 -1.12548672139091891E-06 -1.15397852919964633E-06 -1.18319160931666296E-06
 -1.21314422077378935E-06 -1.24385508482918298E-06 -1.27534339666847075E-06
 -1.30762883740211839E-06 -1.34073158636648717E-06 -1.37467233373628366E-06
 -1.40947229345630426E-06 -1.44515321650050336E-06 -1.48173740446673833E-06
 -1.51924772351564444E-06 -1.55770761866234592E-06 -1.59714112842998869E-06
 -1.63757289987416770E-06 -1.67902820398772159E-06 -1.72153295149547652E-06
 -1.76511370904880637E-06 -1.80979771583017751E-06 -1.85561290057797596E-06
 -1.90258789904233962E-06 -1.95075207188285600E-06 -2.00013552301930973E-06
 -2.05076911844699656E-06 -2.10268450552826884E-06 -2.15591413277248854E-06
 -2.21049127011663320E-06 -2.26645002971932422E-06 -2.32382538728122083E-06
 -2.38265320390508206E-06 -2.44297024850923347E-06 -2.50481422080837569E-06
 -2.56822377487612798E-06 -2.63323854330404268E-06 -2.69989916197212786E-06
 -2.76824729544644710E-06 -2.83832566301959994E-06 -2.91017806541036930E-06
 -2.98384941213926896E-06 -3.05938574959699873E-06 -3.13683428982345150E-06
 -3.21624344001520365E-06 -3.29766283277993317E-06 -3.38114335715666823E-06
 -3.46673719042126485E-06 -3.55449783069699036E-06 -3.64448013039053526E-06
 -3.73674033047447918E-06 -3.83133609563744504E-06 -3.92832655032408931E-06
 -4.02777231568732092E-06 -4.12973554747588674E-06 -4.23427997488104624E-06
 -4.34147094036646531E-06 -4.45137544050642249E-06 -4.56406216785763413E-06
 -4.67960155389101521E-06 -4.79806581301016549E-06 -4.91952898768397941E-06
 -5.04406699472178730E-06 -5.17175767271971453E-06 -5.30268083070806214E-06
 -5.43691829803008796E-06 -5.57455397548321829E-06 -5.71567388775484612E-06
 -5.86036623718532495E-06 -6.00872145889177183E-06 -6.16083227728722764E-06
 -6.31679376403033316E-06 -6.47670339744182139E-06 -6.64066112342492034E-06
 -6.80876941792776816E-06 -6.98113335098675783E-06 -7.15786065239093842E-06
 -7.33906177900848231E-06 -7.52484998381712007E-06 -7.71534138668191536E-06
 -7.91065504692449592E-06 -8.11091303772885099E-06 -8.31624052243062766E-06
 -8.52676583273717953E-06 -8.74262054892740912E-06 -8.96393958208151471E-06
 -9.19086125839191900E-06 -9.42352740560818221E-06 -9.66208344166962673E-06
 -9.90667846558144373E-06 -1.01574653505907246E-05 -1.04146008397206001E-05
 -1.06782456437224481E-05 -1.09485645415070590E-05 -1.12257264831176787E-05
 -1.15099046953090521E-05 -1.18012767897985644E-05 -1.21000248742571706E-05
 -1.24063356661090484E-05 -1.27204006092114620E-05 -1.30424159934875510E-05
 -1.33725830775866355E-05 -1.37111082146488859E-05 -1.40582029812525184E-05
 -1.44140843096244754E-05 -1.47789746231969430E-05 -1.51531019755941816E-05
 -1.55367001931367492E-05 -1.59300090209518440E-05 -1.63332742727812962E-05
 -1.67467479845804476E-05 -1.71706885720038619E-05 -1.76053609918763671E-05
 -1.80510369077500398E-05 -1.85079948596506447E-05 -1.89765204381194826E-05
 -1.94569064626589264E-05 -1.99494531646936955E-05 -2.04544683751614273E-05
 -2.09722677168502095E-05 -2.15031748016026569E-05 -2.20475214325097674E-05
 -2.26056478112208697E-05 -2.31779027504988682E-05 -2.37646438921536643E-05
 -2.43662379304895773E-05 -2.49830608414060653E-05 -2.56154981172949983E-05
 -2.62639450078809749E-05 -2.69288067671547301E-05 -2.76104989065542105E-05
 -2.83094474545504926E-05 -2.90260892228013337E-05 -2.97608720790377133E-05
 -3.05142552268538416E-05 -3.12867094925755825E-05 -3.20787176193853022E-05
 -3.28907745688874893E-05 -3.37233878303027463E-05 -3.45770777374828170E-05
 -3.54523777939449980E-05 -3.63498350061278340E-05 -3.72700102250765166E-05
 -3.82134784967708331E-05 -3.91808294213136140E-05 -4.01726675212046264E-05
 -4.11896126189280476E-05 -4.22323002240903509E-05 -4.33013819303489848E-05
 -4.43975258223793128E-05 -4.55214168931340957E-05 -4.66737574716543616E-05
 -4.78552676616992708E-05 -4.90666857914681903E-05 -5.03087688746938256E-05
 -5.15822930833959400E-05 -5.28880542325876242E-05 -5.42268682772382204E-05
 -5.55995718218010447E-05 -5.70070226426234040E-05 -5.84501002235647898E-05
 -5.99297063051557009E-05 -6.14467654476402297E-05 -6.30022256082518655E-05
 -6.45970587330821236E-05 -6.62322613639107103E-05 -6.79088552603741602E-05
 -6.96278880378608465E-05 -7.13904338215289312E-05 -7.31975939168532221E-05
 -7.50504974971198836E-05 -7.69503023082945137E-05 -7.88981953917031995E-05
 -8.08953938249761336E-05 -8.29431454817125145E-05 -8.50427298103415306E-05
 -8.71954586326613706E-05 -8.94026769625533789E-05 -9.16657638453807701E-05
 -9.39861332185911108E-05 -9.63652347940601199E-05 -9.88045549627217170E-05
 -1.01305617722048568E-04 -1.03869985626957401E-04 -1.06499260764729360E-04
 -1.09195085754551911E-04 -1.11959144772300312E-04 -1.14793164601196019E-04
 -1.17698915708993546E-04 -1.20678213352362672E-04 -1.23732918709152523E-04
 -1.26864940039237041E-04 -1.30076233874663985E-04 -1.33368806239843199E-04
 -1.36744713902529327E-04 -1.40206065656376717E-04 -1.43755023635856993E-04
 -1.47393804664355766E-04 -1.51124681636283562E-04 -1.54949984934051131E-04
 -1.58872103880793568E-04 -1.62893488229734175E-04 -1.67016649691113030E-04
 -1.71244163497623699E-04 -1.75578670009323594E-04 -1.80022876359011027E-04
 -1.84579558139084466E-04 -1.89251561130925126E-04 -1.94041803077871125E-04
 -1.98953275502875102E-04 -2.03989045571969363E-04 -2.09152258004683935E-04
 -2.14446137032597996E-04 -2.19873988407229720E-04 -2.25439201458500727E-04
 -2.31145251205044515E-04 -2.36995700517655375E-04 -2.42994202337209147E-04
 -2.49144501948421601E-04 -2.55450439310837656E-04 -2.61915951448489807E-04
 -2.68545074899685871E-04 -2.75341948228437791E-04 -2.82310814599064065E-04
 -2.89456024415552860E-04 -2.96782038027297069E-04 -3.04293428502862989E-04
 -3.11994884473488761E-04 -3.19891213048054503E-04 -3.27987342801307051E-04
 -3.36288326837164066E-04 -3.44799345928971628E-04 -3.53525711738632373E-04
 -3.62472870116567199E-04 -3.71646404484524812E-04 -3.81052039303300791E-04
 -3.90695643627477363E-04 -4.00583234749349174E-04 -4.10720981934248645E-04
 -4.21115210249547382E-04 -4.31772404489652356E-04 -4.42699213199384590E-04
 -4.53902452798177756E-04 -4.65389111807596356E-04 -4.77166355184737258E-04
 -4.89241528764129772E-04 -5.01622163810826085E-04 -5.14315981687427310E-04
 -5.27330898637866602E-04 -5.40675030690829120E-04 -5.54356698685765374E-04
 -5.68384433424520244E-04 -5.82766980951680749E-04 -5.97513307966802596E-04
 -6.12632607371776895E-04 -6.28134303956650675E-04 -6.44028060227309408E-04
 -6.60323782378507344E-04 -6.77031626415811071E-04 -6.94162004430111672E-04
 -7.11725591028442733E-04 -7.29733329924926667E-04 -7.48196440695778932E-04
 -7.67126425702363145E-04 -7.86535077186419572E-04 -8.06434484541648637E-04
 -8.26837041765962513E-04 -8.47755455098792802E-04 -8.69202750847959020E-04
 -8.91192283410710334E-04 -9.13737743493636418E-04 -9.36853166536285925E-04
 -9.60552941343411140E-04 -9.84851818930893280E-04 -1.00976492159050488E-03
 -1.03530775217879241E-03 -1.06149620363546991E-03 -1.08834656873685884E-03
 -1.11587555009001077E-03 -1.14410027037329092E-03 -1.17303828282933108E-03
 -1.20270758201638074E-03 -1.23312661482423555E-03 -1.26431429176105162E-03
 -1.29628999851748696E-03 -1.32907360781477860E-03 -1.36268549154346759E-03
 -1.39714653319968161E-03 -1.43247814062598747E-03 -1.46870225906401775E-03
 -1.50584138452620141E-03 -1.54391857749409944E-03 -1.58295747695101846E-03
 -1.62298231475670554E-03 -1.66401793037212619E-03 -1.70608978594248019E-03
 -1.74922398174677594E-03 -1.79344727202247365E-03 -1.83878708117385728E-03
 -1.88527152037300813E-03 -1.93292940456239759E-03 -1.98179026986831540E-03
 -2.03188439143455130E-03 -2.08324280168589379E-03 -2.13589730903124058E-03
 -2.18988051701628737E-03 -2.24522584393594066E-03 -2.30196754291684107E-03
 -2.36014072248051003E-03 -2.41978136759792278E-03 -2.48092636124641131E-03
 -2.54361350648008066E-03 -2.60788154902509214E-03 -2.67377020041136221E-03
 -2.74132016165246507E-03 -2.81057314748568406E-03 -2.88157191118440341E-03
 -2.95436026995524138E-03 -3.02898313093248085E-03 -3.10548651778261905E-03
 -3.18391759793204814E-03 -3.26432471043103418E-03 -3.34675739446747356E-03
 -3.43126641854397474E-03 -3.51790381033212796E-03 -3.60672288721797154E-03
 -3.69777828755284230E-03 -3.79112600262405909E-03 -3.88682340935998880E-03
 -3.98492930378432399E-03 -4.08550393523448782E-03 -4.18860904135935457E-03
 -4.29430788391154533E-03 -4.40266528534982715E-03 -4.51374766626719617E-03
 -4.62762308366047002E-03 -4.74436127005728459E-03 -4.86403367351654486E-03
 -4.98671349851853747E-03 -5.11247574776096080E-03 -5.24139726487725128E-03
 -5.37355677809370994E-03 -5.50903494484190990E-03 -5.64791439734306164E-03
 -5.79027978918084368E-03 -5.93621784287949247E-03 -6.08581739850367828E-03
 -6.23916946329686715E-03 -6.39636726237475563E-03 -6.55750629049027967E-03
 -6.72268436488659363E-03 -6.89200167925441056E-03 -7.06556085880978568E-03
 -7.24346701650834240E-03 -7.42582781041171720E-03 -7.61275350222170594E-03
 -7.80435701699733978E-03 -8.00075400406979019E-03 -8.20206289916958556E-03
 -8.40840498778025816E-03 -8.61990446973202699E-03 -8.83668852504861449E-03
 -9.05888738105970100E-03 -9.28663438079095627E-03 -9.52006605264272762E-03
 -9.75932218136789029E-03 -1.00045458803583575E-02 -1.02558836652489795E-02
 -1.05134855288464436E-02 -1.07775050173897855E-02 -1.10480993081479451E-02
 -1.13254292883585399E-02 -1.16096596355106264E-02 -1.19009588989728039E-02
 -1.21994995829665543E-02 -1.25054582308826209E-02 -1.28190155109370162E-02
 -1.31403563031607436E-02 -1.34696697877155543E-02 -1.38071495345257582E-02
 -1.41529935942137069E-02 -1.45074045903239891E-02 -1.48705898128186770E-02
 -1.52427613128232869E-02 -1.56241359985996777E-02 -1.60149357327191225E-02
 -1.64153874304050762E-02 -1.68257231590115859E-02 -1.72461802385994213E-02
 -1.76770013435675610E-02 -1.81184346052936304E-02 -1.85707337157317055E-02
 -1.90341580319113822E-02 -1.95089726812763264E-02 -1.99954486677952313E-02
 -2.04938629787720684E-02 -2.10044986922760628E-02 -2.15276450851057399E-02
 -2.20635977411937426E-02 -2.26126586603521626E-02 -2.31751363672503020E-02
 -2.37513460205082787E-02 -2.43416095217815591E-02 -2.49462556247020024E-02
 -2.55656200435316547E-02 -2.62000455613751668E-02 -2.68498821377860276E-02
 -2.75154870155904958E-02 -2.81972248267415154E-02 -2.88954676970018462E-02
 -2.96105953492431448E-02 -3.03429952051335258E-02 -3.10930624849716022E-02
 -3.18612003054100090E-02 -3.26478197747947646E-02 -3.34533400858319716E-02
 -3.42781886052731730E-02 -3.51228009602932295E-02 -3.59876211212159236E-02
 -3.68731014802207990E-02 -3.77797029256449063E-02 -3.87078949114696910E-02
 -3.96581555215604550E-02 -4.06309715282013456E-02 -4.16268384444431830E-02
 -4.26462605697548597E-02 -4.36897510284407001E-02 -4.47578318002579204E-02
 -4.58510337426366668E-02 -4.69698966038743088E-02 -4.81149690266420085E-02
 -4.92868085411072437E-02 -5.04859815469392986E-02 -5.17130632834283815E-02
 -5.29686377869085095E-02 -5.42532978346347491E-02 -5.55676448742219858E-02
 -5.69122889377098803E-02 -5.82878485392709922E-02 -5.96949505555332133E-02
 -6.11342300874376937E-02 -6.26063303025020945E-02 -6.41119022563060859E-02
 -6.56516046919600332E-02 -6.72261038162676461E-02 -6.88360730512246194E-02
 -7.04821927594407871E-02 -7.21651499420085801E-02 -7.38856379072772435E-02
 -7.56443559089250150E-02 -7.74420087516532601E-02 -7.92793063627555972E-02
 -8.11569633277427344E-02 -8.30756983881296707E-02 -8.50362338994156836E-02
 -8.70392952472090614E-02 -8.90856102193696431E-02 -9.11759083319602648E-02
 -9.33109201067151145E-02 -9.54913762976499908E-02 -9.77180070643518112E-02
 -9.99915410894000739E-02 -1.02312704637283966E-01 -1.04682220552090352E-01
 -1.07100807191150046E-01 -1.09569177291739400E-01 -1.12088036767845664E-01
 -1.14658083433915953E-01 -1.17280005652420652E-01 -1.19954480901976926E-01
 -1.22682174262688029E-01 -1.25463736815275839E-01 -1.28299803950512853E-01
 -1.31190993585359295E-01 -1.34137904282151998E-01 -1.37141113267121667E-01
 -1.40201174344451007E-01 -1.43318615702028529E-01 -1.46493937605002345E-01
 -1.49727609973195924E-01 -1.53020069838417982E-01 -1.56371718677671523E-01
 -1.59782919618260161E-01 -1.63253994510792394E-01 -1.66785220866098954E-01
 -1.70376828652114093E-01 -1.74028996946823583E-01 -1.77741850443449895E-01
 -1.81515455804142245E-01 -1.85349817858552868E-01 -1.89244875643825500E-01
 -1.93200498282693672E-01 -1.97216480696588620E-01 -2.01292539150894290E-01
 -2.05428306629760471E-01 -2.09623328038199858E-01 -2.13877055229550972E-01
 -2.18188841856792742E-01 -2.22557938046656995E-01 -2.26983484895990684E-01
 -2.31464508790380719E-01 -2.35999915545692523E-01 -2.40588484373873507E-01
 -2.45228861675139465E-01 -2.49919554659511434E-01 -2.54658924801601905E-01
 -2.59445181133563407E-01 -2.64276373382228980E-01 -2.69150384957681288E-01
 -2.74064925801802195E-01 -2.79017525106785791E-01 -2.84005523915136060E-01
 -2.89026067614343796E-01 -2.94076098341231107E-01 -2.99152347312891365E-01
 -3.04251327103226832E-01 -3.09369323886317271E-01 -3.14502389670235527E-01
 -3.19646334547474709E-01 -3.24796718990865985E-01 -3.29948846226758186E-01
 -3.35097754720296181E-01 -3.40238210810899278E-01 -3.45364701539486396E-01
 -3.50471427712725159E-01 -3.55552297253065253E-01 -3.60600918887721000E-01
 -3.65610596233936547E-01 -3.70574322342182905E-01 -3.75484774763612195E-01
 -3.80334311212898402E-01 -3.85114965902602358E-01 -3.89818446630366189E-01
 -3.94436132705594411E-01 -3.98959073807770126E-01 -4.03377989874183607E-01
 -4.07683272120599960E-01 -4.11864985304233377E-01 -4.15912871344278123E-01
 -4.19816354421195137E-01 -4.23564547681842596E-01 -4.27146261683418182E-01
 -4.30550014714918827E-01 -4.33764045140409005E-01 -4.36776325913752428E-01
 -4.39574581419499177E-01 -4.42146306799291178E-01 -4.44478789927335083E-01
 -4.46559136202091256E-01 -4.48374296324355770E-01 -4.49911097234509283E-01
 -4.51156276380513754E-01 -4.52096519491001270E-01 -4.52718502026105696E-01
 -4.53008934475289171E-01 -4.52954611667533202E-01 -4.52542466253249787E-01
 -4.51759626509216083E-01 -4.50593478607548503E-01 -4.49031733476948802E-01
 -4.47062498368940353E-01 -4.44674353223291352E-01 -4.41856431905005176E-01
 -4.38598508359898775E-01 -4.34891087706527735E-01 -4.30725502248816228E-01
 -4.26094012355846707E-01 -4.20989912112590403E-01 -4.15407639597578704E-01
 -4.09342891590351365E-01 -4.02792742452662833E-01 -3.95755766862625591E-01
 -3.88232166009965796E-01 -3.80223896783153326E-01 -3.71734803395162017E-01
 -3.62770750804479236E-01 -3.53339759190202773E-01 -3.43452138631394566E-01
 -3.33120623038510089E-01 -3.22360502262252102E-01 -3.11189751181901952E-01
 -2.99629154446435508E-01 -2.87702425407455387E-01 -2.75436317644360773E-01
 -2.62860727340238631E-01 -2.50008784622882896E-01 -2.36916931840537665E-01
 -2.23624986598124020E-01 -2.10176187238837714E-01 -1.96617218320308845E-01
 -1.82998213506736618E-01 -1.69372733181354068E-01 -1.55797713980751568E-01
 -1.42333387367567621E-01 -1.29043164295071566E-01 -1.15993482980712020E-01
 -1.03253616800709824E-01 -9.08954393496460150E-02 -7.89931437834101857E-02
 -6.76229136869548469E-02 -5.68625428862669438E-02 -4.67910018576772474E-02
 -3.74879487122077720E-02 -2.90331831135703482E-02 -2.15060419354038170E-02
 -1.49847360234129975E-02 -9.54562784015913074E-03 -5.26244667860727416E-03
 -2.20537782118453238E-03 -4.39008398950133897E-04  8.23829609975533729E-06
  5.90780563623574675E-07  4.17503734202924840E-08  2.90815287846492664E-09
  1.99599268341966319E-10  1.34872506488674309E-11  8.95955201683510362E-13
  5.83825339178518728E-14  3.71933890362672452E-15  2.30484143206596709E-16
  1.37834035715907858E-17  7.84876019746028766E-19  4.15024411490511311E-20
  1.92586641084824457E-21  6.52654045740850250E-23 -2.27504746825962434E-25
 -3.37105378108378006E-25 -4.48327185350766499E-26 -4.52860560995463579E-27
 -4.06977840306848572E-28 -3.42300525171231205E-29 -2.75615777032435670E-30
 -2.15010352859532557E-31 -1.63647052344303103E-32 -1.22046584408694442E-33
 -8.94329070962204745E-35 -6.45000528151150445E-36  0.00000000000000000E+00
  0.00000000000000000E+00  0.00000000000000000E+00  0.00000000000000000E+00
  0.00000000000000000E+00  0.00000000000000000E+00  0.00000000000000000E+00
  0.00000000000000000E+00  0.00000000000000000E+00  0.00000000000000000E+00
  0.00000000000000000E+00  0.00000000000000000E+00  0.00000000000000000E+00
  0.00000000000000000E+00  0.00000000000000000E+00  0.00000000000000000E+00
  0.00000000000000000E+00  0.00000000000000000E+00  0.00000000000000000E+00
  0.00000000000000000E+00  0.00000000000000000E+00  0.00000000000000000E+00
  0.00000000000000000E+00  0.00000000000000000E+00  0.00000000000000000E+00
  0.00000000000000000E+00  0.00000000000000000E+00  0.00000000000000000E+00
  0.00000000000000000E+00  0.00000000000000000E+00  0.00000000000000000E+00
  0.00000000000000000E+00  0.00000000000000000E+00  0.00000000000000000E+00
  0.00000000000000000E+00  0.00000000000000000E+00  0.00000000000000000E+00
  0.00000000000000000E+00  0.00000000000000000E+00  0.00000000000000000E+00
  0.00000000000000000E+00  0.00000000000000000E+00  0.00000000000000000E+00
  0.00000000000000000E+00  0.00000000000000000E+00  0.00000000000000000E+00
  0.00000000000000000E+00  0.00000000000000000E+00  0.00000000000000000E+00
  0.00000000000000000E+00  0.00000000000000000E+00  0.00000000000000000E+00
  0.00000000000000000E+00  0.00000000000000000E+00  0.00000000000000000E+00
  0.00000000000000000E+00  0.00000000000000000E+00  0.00000000000000000E+00
  0.00000000000000000E+00  0.00000000000000000E+00  0.00000000000000000E+00
  0.00000000000000000E+00  0.00000000000000000E+00  0.00000000000000000E+00
  0.00000000000000000E+00  0.00000000000000000E+00  0.00000000000000000E+00
  0.00000000000000000E+00  0.00000000000000000E+00  0.00000000000000000E+00
  0.00000000000000000E+00  0.00000000000000000E+00  0.00000000000000000E+00
  0.00000000000000000E+00  0.00000000000000000E+00  0.00000000000000000E+00
  0.00000000000000000E+00  0.00000000000000000E+00  0.00000000000000000E+00
  0.00000000000000000E+00  0.00000000000000000E+00  0.00000000000000000E+00
  0.00000000000000000E+00  0.00000000000000000E+00  0.00000000000000000E+00
  0.00000000000000000E+00  0.00000000000000000E+00  0.00000000000000000E+00
  0.00000000000000000E+00  0.00000000000000000E+00  0.00000000000000000E+00
  0.00000000000000000E+00  0.00000000000000000E+00  0.00000000000000000E+00
  0.00000000000000000E+00  0.00000000000000000E+00  0.00000000000000000E+00
  0.00000000000000000E+00  0.00000000000000000E+00  0.00000000000000000E+00
  0.00000000000000000E+00  0.00000000000000000E+00  0.00000000000000000E+00
  0.00000000000000000E+00  0.00000000000000000E+00  0.00000000000000000E+00
  0.00000000000000000E+00  0.00000000000000000E+00  0.00000000000000000E+00
  0.00000000000000000E+00  0.00000000000000000E+00  0.00000000000000000E+00
  0.00000000000000000E+00  0.00000000000000000E+00  0.00000000000000000E+00
  0.00000000000000000E+00  0.00000000000000000E+00  0.00000000000000000E+00
  0.00000000000000000E+00  0.00000000000000000E+00  0.00000000000000000E+00
  0.00000000000000000E+00  0.00000000000000000E+00  0.00000000000000000E+00
  0.00000000000000000E+00  0.00000000000000000E+00  0.00000000000000000E+00
  0.00000000000000000E+00  0.00000000000000000E+00  0.00000000000000000E+00
  0.00000000000000000E+00  0.00000000000000000E+00  0.00000000000000000E+00
  0.00000000000000000E+00  0.00000000000000000E+00  0.00000000000000000E+00
  0.00000000000000000E+00  0.00000000000000000E+00  0.00000000000000000E+00
  0.00000000000000000E+00  0.00000000000000000E+00  0.00000000000000000E+00
  0.00000000000000000E+00  0.00000000000000000E+00  0.00000000000000000E+00
  0.00000000000000000E+00  0.00000000000000000E+00  0.00000000000000000E+00
  0.00000000000000000E+00  0.00000000000000000E+00  0.00000000000000000E+00
  0.00000000000000000E+00  0.00000000000000000E+00  0.00000000000000000E+00
  0.00000000000000000E+00  0.00000000000000000E+00  0.00000000000000000E+00
  0.00000000000000000E+00  0.00000000000000000E+00  0.00000000000000000E+00
  0.00000000000000000E+00  0.00000000000000000E+00  0.00000000000000000E+00
                       </PP_QIJL.1.1.0>
 <PP_QIJL.1.2.0 type="real" size="   999" columns="3" first_index=" 1" second_index=" 2" composite_index=" 2" angular_momentum="0">
 -6.45761565197121993E-09 -6.62109096958914013E-09 -6.78870468452857077E-09
 -6.96056156081406827E-09 -7.13676901458399785E-09 -7.31743718122907724E-09
 -7.50267898423059538E-09 -7.69261020574120879E-09 -7.88734955895255708E-09
 -8.08701876229495296E-09 -8.29174261551522301E-09 -8.50164907768063182E-09
 -8.71686934715750312E-09 -8.93753794361441993E-09 -9.16379279210139493E-09
 -9.39577530925745608E-09 -9.63363049170072166E-09 -9.87750700665589145E-09
 -1.01275572848761118E-08 -1.03839376159172534E-08 -1.06468082458237738E-08
 -1.09163334772877648E-08 -1.11926817723435198E-08 -1.14760258576616765E-08
 -1.17665428325090520E-08 -1.20644142794413898E-08 -1.23698263777983402E-08
 -1.26829700200715629E-08 -1.30040409312187806E-08 -1.33332397909981951E-08
 -1.36707723593997594E-08 -1.40168496052519806E-08 -1.43716878380840978E-08
 -1.47355088433266660E-08 -1.51085400209346662E-08 -1.54910145275196464E-08
 -1.58831714220803580E-08 -1.62852558154222320E-08 -1.66975190233595711E-08
 -1.71202187237962581E-08 -1.75536191177824332E-08 -1.79979910946489973E-08
 -1.84536124013220529E-08 -1.89207678159236932E-08 -1.93997493257677675E-08
 -1.98908563098610035E-08 -2.03943957260248847E-08 -2.09106823027540258E-08
 -2.14400387359317029E-08 -2.19827958905253262E-08 -2.25392930073874226E-08
 -2.31098779152924509E-08 -2.36949072483407377E-08 -2.42947466688665005E-08
 -2.49097710959885355E-08 -2.55403649399466971E-08 -2.61869223423707105E-08
 -2.68498474226314927E-08 -2.75295545304286173E-08 -2.82264685047724810E-08
 -2.89410249395220682E-08 -2.96736704556452892E-08 -3.04248629803715091E-08
 -3.11950720334106444E-08 -3.19847790204183948E-08 -3.27944775338898419E-08
 -3.36246736616709603E-08 -3.44758863032796113E-08 -3.53486474942344580E-08
 -3.62435027385944165E-08 -3.71610113499159126E-08 -3.81017468008420216E-08
 -3.90662970815411877E-08 -4.00552650672199511E-08 -4.10692688949394050E-08
 -4.21089423499704803E-08 -4.31749352619300400E-08 -4.42679139109454727E-08
 -4.53885614441007103E-08 -4.65375783024254846E-08 -4.77156826586929279E-08
 -4.89236108663007068E-08 -5.01621179195155653E-08 -5.14319779253684695E-08
 -5.27339845874967938E-08 -5.40689517022338761E-08 -5.54377136672578881E-08
 -5.68411260031171008E-08 -5.82800658879571859E-08 -5.97554327057860080E-08
 -6.12681486086166883E-08 -6.28191590928421391E-08 -6.44094335902005407E-08
 -6.60399660737006777E-08 -6.77117756788870560E-08 -6.94259073408314558E-08
 -7.11834324472507884E-08 -7.29854495081581622E-08 -7.48330848424665987E-08
 -7.67274932819743278E-08 -7.86698588931702397E-08 -8.06613957173136766E-08
 -8.27033485292482757E-08 -8.47969936154251974E-08 -8.69436395716232698E-08
 -8.91446281208616447E-08 -9.14013349520192197E-08 -9.37151705796834454E-08
 -9.60875812257662778E-08 -9.85200497234387077E-08 -1.01014096443946959E-07
 -1.03571280246892851E-07 -1.06193199454569744E-07 -1.08881492850963794E-07
 -1.11637840706045556E-07 -1.14463965825990403E-07 -1.17361634629986391E-07
 -1.20332658254301366E-07 -1.23378893684299487E-07 -1.26502244915114585E-07
 -1.29704664141705946E-07 -1.32988152979041095E-07 -1.36354763713166477E-07
 -1.39806600583950159E-07 -1.43345821100296964E-07 -1.46974637388656870E-07
 -1.50695317575672865E-07 -1.54510187205829736E-07 -1.58421630694990502E-07
 -1.62432092820730031E-07 -1.66544080250394571E-07 -1.70760163107845966E-07
 -1.75082976579867690E-07 -1.79515222563236240E-07 -1.84059671353488706E-07
 -1.88719163376442664E-07 -1.93496610963545919E-07 -1.98395000172173605E-07
 -2.03417392652003155E-07 -2.08566927558637198E-07 -2.13846823515671450E-07
 -2.19260380626428875E-07 -2.24810982536624173E-07 -2.30502098549242679E-07
 -2.36337285792958081E-07 -2.42320191445444271E-07 -2.48454555012967265E-07
 -2.54744210667689327E-07 -2.61193089644137752E-07 -2.67805222696342391E-07
 -2.74584742617176538E-07 -2.81535886821470470E-07 -2.88662999994521042E-07
 -2.95970536807645553E-07 -3.03463064702479618E-07 -3.11145266745762492E-07
 -3.19021944556384991E-07 -3.27098021306541149E-07 -3.35378544798851002E-07
 -3.43868690621380175E-07 -3.52573765382531976E-07 -3.61499210027823438E-07
 -3.70650603240632390E-07 -3.80033664929030235E-07 -3.89654259800882717E-07
 -3.99518401029459849E-07 -4.09632254011829999E-07 -4.20002140222406377E-07
 -4.30634541164041053E-07 -4.41536102419141300E-07 -4.52713637803341075E-07
 -4.64174133624316398E-07 -4.75924753048417435E-07 -4.87972840577839921E-07
 -5.00325926641131863E-07 -5.12991732299915705E-07 -5.25978174074749118E-07
 -5.39293368893160610E-07 -5.52945639162938534E-07 -5.66943517973852221E-07
 -5.81295754431052314E-07 -5.96011319123482549E-07 -6.11099409730724775E-07
 -6.26569456771782134E-07 -6.42431129499383767E-07 -6.58694341943514184E-07
 -6.75369259107917401E-07 -6.92466303323476260E-07 -7.09996160762419039E-07
 -7.27969788117431323E-07 -7.46398419449853741E-07 -7.65293573211227025E-07
 -7.84667059442595702E-07 -8.04530987156052955E-07 -8.24897771903150676E-07
 -8.45780143534902136E-07 -8.67191154158212337E-07 -8.89144186293739986E-07
 -9.11652961240260824E-07 -9.34731547650772879E-07 -9.58394370325707373E-07
 -9.82656219228721165E-07 -1.00753225873073745E-06 -1.03303803708797720E-06
 -1.05918949615993504E-06 -1.08600298137335918E-06 -1.11349525193844394E-06
 -1.14168349132366881E-06 -1.17058531799578110E-06 -1.20021879643165599E-06
 -1.23060244840893216E-06 -1.26175526458242966E-06 -1.29369671635364679E-06
 -1.32644676804071470E-06 -1.36002588935641061E-06 -1.39445506820207708E-06
 -1.42975582378536471E-06 -1.46595022007007469E-06 -1.50306087956646019E-06
 -1.54111099747060952E-06 -1.58012435616177923E-06 -1.62012534006667947E-06
 -1.66113895090006178E-06 -1.70319082329110142E-06 -1.74630724080533258E-06
 -1.79051515237219471E-06 -1.83584218912837494E-06 -1.88231668168757287E-06
 -1.92996767784739051E-06 -1.97882496074447539E-06 -2.02891906746924650E-06
 -2.08028130815178722E-06 -2.13294378553092222E-06 -2.18693941501863146E-06
 -2.24230194527237982E-06 -2.29906597928821533E-06 -2.35726699602777759E-06
 -2.41694137259280007E-06 -2.47812640696091050E-06 -2.54086034129694235E-06
 -2.60518238585437843E-06 -2.67113274348175720E-06 -2.73875263474947070E-06
 -2.80808432371258748E-06 -2.87917114432581698E-06 -2.95205752752711692E-06
 -3.02678902900688245E-06 -3.10341235768006247E-06 -3.18197540487895753E-06
 -3.26252727428505130E-06 -3.34511831261841399E-06 -3.42980014110401962E-06
 -3.51662568773452329E-06 -3.60564922034970060E-06 -3.69692638055326678E-06
 -3.79051421848813416E-06 -3.88647122849202302E-06 -3.98485738565552352E-06
 -4.08573418330557277E-06 -4.18916467143775924E-06 -4.29521349612134235E-06
 -4.40394693990183725E-06 -4.51543296322615296E-06 -4.62974124691635902E-06
 -4.74694323571857495E-06 -4.86711218295407069E-06 -4.99032319630067993E-06
 -5.11665328473296219E-06 -5.24618140665050304E-06 -5.37898851922446801E-06
 -5.51515762899314547E-06 -5.65477384373816606E-06 -5.79792442567375794E-06
 -5.94469884598233710E-06 -6.09518884073040568E-06 -6.24948846819976270E-06
 -6.40769416766988044E-06 -6.56990481968799170E-06 -6.73622180786477151E-06
 -6.90674908223412694E-06 -7.08159322421649916E-06 -7.26086351322660874E-06
 -7.44467199496695916E-06 -7.63313355144986859E-06 -7.82636597279180805E-06
 -8.02449003082480981E-06 -8.22762955457103072E-06 -8.43591150762741627E-06
 -8.64946606750912502E-06 -8.86842670700099873E-06 -9.09293027756789519E-06
 -9.32311709487621504E-06 -9.55913102647980286E-06 -9.80111958172512526E-06
 -1.00492340039317643E-05 -1.03036293649058832E-05 -1.05644646618457817E-05
 -1.08319029166997682E-05 -1.11061112780386754E-05 -1.13872611255065932E-05
 -1.16755281769149133E-05 -1.19710925980467512E-05 -1.22741391152400284E-05
 -1.25848571308199013E-05 -1.29034408414523827E-05 -1.32300893594929857E-05
 -1.35650068374063749E-05 -1.39084025953344890E-05 -1.42604912518930690E-05
 -1.46214928582779859E-05 -1.49916330357651658E-05 -1.53711431166900204E-05
 -1.57602602889943596E-05 -1.61592277444310772E-05 -1.65682948305190901E-05
 -1.69877172063431821E-05 -1.74177570022964488E-05 -1.78586829838646076E-05
 -1.83107707195548196E-05 -1.87743027530734794E-05 -1.92495687798605531E-05
 -1.97368658280907443E-05 -2.02364984442542928E-05 -2.07487788834334463E-05
 -2.12740273043931587E-05 -2.18125719696076704E-05 -2.23647494503480009E-05
 -2.29309048369583020E-05 -2.35113919544520515E-05 -2.41065735835630373E-05
 -2.47168216873883966E-05 -2.53425176437658023E-05 -2.59840524835291674E-05
 -2.66418271347917954E-05 -2.73162526734095703E-05 -2.80077505797797575E-05
 -2.87167530021362415E-05 -2.94437030265051539E-05 -3.01890549534888506E-05
 -3.09532745820517301E-05 -3.17368395004838681E-05 -3.25402393847247132E-05
 -3.33639763042324240E-05 -3.42085650355893436E-05 -3.50745333840398810E-05
 -3.59624225131600372E-05 -3.68727872828653465E-05 -3.78061965959671569E-05
 -3.87632337534931189E-05 -3.97444968189941995E-05 -4.07505989920639583E-05
 -4.17821689913038479E-05 -4.28398514469730747E-05 -4.39243073035664521E-05
 -4.50362142325730407E-05 -4.61762670556705189E-05 -4.73451781786207783E-05
 -4.85436780361357204E-05 -4.97725155479905463E-05 -5.10324585866690544E-05
 -5.23242944568311739E-05 -5.36488303869022844E-05 -5.50068940330895797E-05
 -5.63993339961392173E-05 -5.78270203511564295E-05 -5.92908451908174966E-05
 -6.07917231823123483E-05 -6.23305921383639574E-05 -6.39084136026792039E-05
 -6.55261734501965841E-05 -6.71848825025026468E-05 -6.88855771588008835E-05
 -7.06293200428254162E-05 -7.24172006661002131E-05 -7.42503361079584027E-05
 -7.61298717127420992E-05 -7.80569818046173417E-05 -8.00328704204483462E-05
 -8.20587720611848468E-05 -8.41359524622314875E-05 -8.62657093832754437E-05
 -8.84493734180643801E-05 -9.06883088246367581E-05 -9.29839143765192851E-05
 -9.53376242354215175E-05 -9.77509088459667375E-05 -1.00225275853016113E-04
 -1.02762271042154584E-04 -1.05363479303920732E-04 -1.08030525622380345E-04
 -1.10765076088654191E-04 -1.13568838940030477E-04 -1.16443565625304416E-04
 -1.19391051897004444E-04 -1.22413138931183705E-04 -1.25511714475467150E-04
 -1.28688714026067668E-04 -1.31946122034499178E-04 -1.35285973144729909E-04
 -1.38710353461548067E-04 -1.42221401850916847E-04 -1.45821311273127471E-04
 -1.49512330149573290E-04 -1.53296763763988093E-04 -1.57176975699015696E-04
 -1.61155389308997404E-04 -1.65234489229886526E-04 -1.69416822927221923E-04
 -1.73705002283115176E-04 -1.78101705223231491E-04 -1.82609677384765141E-04
 -1.87231733826439823E-04 -1.91970760781586349E-04 -1.96829717455376232E-04
 -2.01811637867320551E-04 -2.06919632740165129E-04 -2.12156891436344791E-04
 -2.17526683943189278E-04 -2.23032362908096954E-04 -2.28677365724932400E-04
 -2.34465216672922604E-04 -2.40399529109371199E-04 -2.46484007717529951E-04
 -2.52722450811011877E-04 -2.59118752696153583E-04 -2.65676906093777329E-04
 -2.72401004621833647E-04 -2.79295245340445701E-04 -2.86363931360911878E-04
 -2.93611474520259394E-04 -3.01042398122986030E-04 -3.08661339751662518E-04
 -3.16473054148111942E-04 -3.24482416166920601E-04 -3.32694423803085477E-04
 -3.41114201295637223E-04 -3.49747002309131643E-04 -3.58598213194941584E-04
 -3.67673356334337201E-04 -3.76978093565377595E-04 -3.86518229695701127E-04
 -3.96299716103340276E-04 -4.06328654427743946E-04 -4.16611300353246668E-04
 -4.27154067487266979E-04 -4.37963531335584994E-04 -4.49046433377097863E-04
 -4.60409685240513098E-04 -4.72060372985498285E-04 -4.84005761490865724E-04
 -4.96253298952429862E-04 -5.08810621493250908E-04 -5.21685557889019300E-04
 -5.34886134411431029E-04 -5.48420579792445809E-04 -5.62297330312404721E-04
 -5.76525035015049603E-04 -5.91112561052558011E-04 -6.06068999163785318E-04
 -6.21403669288976101E-04 -6.37126126324282752E-04 -6.53246166019522362E-04
 -6.69773831022657941E-04 -6.86719417074602525E-04 -7.04093479357999078E-04
 -7.21906839003739662E-04 -7.40170589759056650E-04 -7.58896104821118155E-04
 -7.78095043840155054E-04 -7.97779360096219857E-04 -8.17961307853800690E-04
 -8.38653449898586886E-04 -8.59868665260797582E-04 -8.81620157129574603E-04
 -9.03921460963054641E-04 -9.26786452798826943E-04 -9.50229357769606826E-04
 -9.74264758829047743E-04 -9.98907605692740804E-04 -1.02417322399955086E-03
 -1.05007732469856378E-03 -1.07663601366703057E-03 -1.10386580156482460E-03
 -1.13178361393102811E-03 -1.16040680152842187E-03 -1.18975315094174130E-03
 -1.21984089543572235E-03 -1.25068872607907318E-03 -1.28231580314064667E-03
 -1.31474176776422602E-03 -1.34798675392846633E-03 -1.38207140069868963E-03
 -1.41701686477735335E-03 -1.45284483336017103E-03 -1.48957753730501099E-03
 -1.52723776462083201E-03 -1.56584887428409532E-03 -1.60543481039020024E-03
 -1.64602011664770451E-03 -1.68762995122319391E-03 -1.73029010194484774E-03
 -1.77402700187293135E-03 -1.81886774524555130E-03 -1.86484010380824129E-03
 -1.91197254353606518E-03 -1.96029424175710914E-03 -2.00983510468641857E-03
 -2.06062578537957036E-03 -2.11269770211530185E-03 -2.16608305721672232E-03
 -2.22081485632087466E-03 -2.27692692810655024E-03 -2.33445394449044484E-03
 -2.39343144130195386E-03 -2.45389583944702512E-03 -2.51588446657171998E-03
 -2.57943557923631054E-03 -2.64458838561087419E-03 -2.71138306870357488E-03
 -2.77986081013300397E-03 -2.85006381445606196E-03 -2.92203533406316766E-03
 -2.99581969465259829E-03 -3.07146232129609309E-03 -3.14900976510792702E-03
 -3.22850973052985976E-03 -3.31001110324455512E-03 -3.39356397873019936E-03
 -3.47921969146924338E-03 -3.56703084482430178E-03 -3.65705134159446986E-03
 -3.74933641526537659E-03 -3.84394266196653751E-03 -3.94092807314961029E-03
 -4.04035206900135724E-03 -4.14227553260521509E-03 -4.24676084486545931E-03
 -4.35387192020814974E-03 -4.46367424307299310E-03 -4.57623490521049184E-03
 -4.69162264379873427E-03 -4.80990788039424057E-03 -4.93116276073141645E-03
 -5.05546119538504042E-03 -5.18287890131042314E-03 -5.31349344427569682E-03
 -5.44738428220078747E-03 -5.58463280941757460E-03 -5.72532240186563422E-03
 -5.86953846323788175E-03 -6.01736847209042615E-03 -6.16890202993067467E-03
 -6.32423091029767070E-03 -6.48344910884840822E-03 -6.64665289446367876E-03
 -6.81394086138671293E-03 -6.98541398240765370E-03 -7.16117566310647824E-03
 -7.34133179716671587E-03 -7.52599082277184434E-03 -7.71526378009576921E-03
 -7.90926436989834204E-03 -8.10810901323631358E-03 -8.31191691229941562E-03
 -8.52081011238072297E-03 -8.73491356498961105E-03 -8.95435519211490796E-03
 -9.17926595164490593E-03 -9.40977990394997917E-03 -9.64603427963259957E-03
 -9.88816954844832369E-03 -1.01363294894002403E-02 -1.03906612620080063E-02
 -1.06513154787514133E-02 -1.09184462786865531E-02 -1.11922114022315992E-02
 -1.14727722671170516E-02 -1.17602940454937417E-02 -1.20549457421898574E-02
 -1.23569002741062139E-02 -1.26663345507366989E-02 -1.29834295557984362E-02
 -1.33083704299539717E-02 -1.36413465546046716E-02 -1.39825516367319963E-02
 -1.43321837947600287E-02 -1.46904456454095174E-02 -1.50575443915103371E-02
 -1.54336919107353893E-02 -1.58191048452153878E-02 -1.62140046919895184E-02
 -1.66186178942430186E-02 -1.70331759332776785E-02 -1.74579154211567111E-02
 -1.78930781939602053E-02 -1.83389114055816441E-02 -1.87956676219907040E-02
 -1.92636049158809095E-02 -1.97429869616145802E-02 -2.02340831303707003E-02
 -2.07371685853939489E-02 -2.12525243772358034E-02 -2.17804375388703508E-02
 -2.23212011805593268E-02 -2.28751145843317689E-02 -2.34424832979344272E-02
 -2.40236192280991259E-02 -2.46188407329632833E-02 -2.52284727134681024E-02
 -2.58528467035484925E-02 -2.64923009589158737E-02 -2.71471805442227293E-02
 -2.78178374183844779E-02 -2.85046305178197693E-02 -2.92079258373572036E-02
 -2.99280965085391704E-02 -3.06655228750379073E-02 -3.14205925648827003E-02
 -3.21937005591784384E-02 -3.29852492569780581E-02 -3.37956485359511422E-02
 -3.46253158084710438E-02 -3.54746760727214505E-02 -3.63441619584010112E-02
 -3.72342137665812936E-02 -3.81452795032487593E-02 -3.90778149060367411E-02
 -4.00322834636255911E-02 -4.10091564272625636E-02 -4.20089128138233930E-02
 -4.30320393998075840E-02 -4.40790307056275199E-02 -4.51503889695196031E-02
 -4.62466241103704767E-02 -4.73682536787164779E-02 -4.85158027951370641E-02
 -4.96898040752253994E-02 -5.08907975402778587E-02 -5.21193305128042281E-02
 -5.33759574959166358E-02 -5.46612400356104311E-02 -5.59757465649042343E-02
 -5.73200522287570652E-02 -5.86947386886372546E-02 -6.01003939055572908E-02
 -6.15376119003413907E-02 -6.30069924898361416E-02 -6.45091409977190527E-02
 -6.60446679385015278E-02 -6.76141886732624098E-02 -6.92183230355875173E-02
 -7.08576949261261330E-02 -7.25329318741118889E-02 -7.42446645641280656E-02
 -7.59935263263293026E-02 -7.77801525882628048E-02 -7.96051802863601693E-02
 -8.14692472350991431E-02 -8.33729914517612192E-02 -8.53170504346353470E-02
 -8.73020603924434535E-02 -8.93286554226862678E-02 -9.13974666365301586E-02
 -9.35091212277796846E-02 -9.56642414834009552E-02 -9.78634437329842372E-02
 -1.00107337234456154E-01 -1.02396522993274813E-01 -1.04731592512266450E-01
 -1.07113126469183445E-01 -1.09541693318995950E-01 -1.12017847817866167E-01
 -1.14542129465667761E-01 -1.17115060863859879E-01 -1.19737145985465657E-01
 -1.22408868353847983E-01 -1.25130689126925210E-01 -1.27903045083425787E-01
 -1.30726346507743341E-01 -1.33600974969928177E-01 -1.36527280997326639E-01
 -1.39505581634375236E-01 -1.42536157887056564E-01 -1.45619252048538983E-01
 -1.48755064902551554E-01 -1.51943752801091153E-01 -1.55185424613119322E-01
 -1.58480138540989107E-01 -1.61827898801443132E-01 -1.65228652168149442E-01
 -1.68682284372891955E-01 -1.72188616362708796E-01 -1.75747400410479038E-01
 -1.79358316076697888E-01 -1.83020966020453896E-01 -1.86734871657934648E-01
 -1.90499468667138044E-01 -1.94314102337869193E-01 -1.98178022766545114E-01
 -2.02090379895817240E-01 -2.06050218399581431E-01 -2.10056472414554357E-01
 -2.14107960120265783E-01 -2.18203378170057860E-01 -2.22341295976495018E-01
 -2.26520149855474917E-01 -2.30738237034303517E-01 -2.34993709530053579E-01
 -2.39284567905673262E-01 -2.43608654912559980E-01 -2.47963649029659283E-01
 -2.52347057910609074E-01 -2.56756211752014907E-01 -2.61188256597635782E-01
 -2.65640147595072373E-01 -2.70108642223495121E-01 -2.74590293513031269E-01
 -2.79081443278656194E-01 -2.83578215393801791E-01 -2.88076509131421632E-01
 -2.92571992602929709E-01 -2.97060096328276846E-01 -3.01536006973441018E-01
 -3.05994661294861581E-01 -3.10430740333390631E-01 -3.14838663904177918E-01
 -3.19212585432549378E-01 -3.23546387189702300E-01 -3.27833675986127171E-01
 -3.32067779384857764E-01 -3.36241742501025731E-01 -3.40348325458706191E-01
 -3.44380001580714190E-01 -3.48328956391807387E-01 -3.52187087520662134E-01
 -3.55946005591012749E-01 -3.59597036197442099E-01 -3.63131223066446962E-01
 -3.66539332508596771E-01 -3.69811859272746013E-01 -3.72939033918393725E-01
 -3.75910831827292347E-01 -3.78716983980287247E-01 -3.81346989630048150E-01
 -3.83790131004754731E-01 -3.86035490181873997E-01 -3.88071968274823764E-01
 -3.89888307078458951E-01 -3.91473113321961164E-01 -3.92814885679979242E-01
 -3.93902044691826991E-01 -3.94722965740958276E-01 -3.95266015245457680E-01
 -3.95519590207322413E-01 -3.95472161264916577E-01 -3.95112319387731559E-01
 -3.94428826345553707E-01 -3.93410669075161479E-01 -3.92047118056507604E-01
 -3.90327789796804492E-01 -3.88242713504751258E-01 -3.85782402018100379E-01
 -3.82937927025615354E-01 -3.79700998598925588E-01 -3.76064049020622071E-01
 -3.72020320861842058E-01 -3.67563959225336745E-01 -3.62690108028294877E-01
 -3.57395010152780357E-01 -3.51676111240254052E-01 -3.45532166850074984E-01
 -3.38963352639878035E-01 -3.31971377158141567E-01 -3.24559596765909175E-01
 -3.16733132125933903E-01 -3.08498985612139731E-01 -2.99866158897419299E-01
 -2.90845769888422534E-01 -2.81451168069064839E-01 -2.71698047206833548E-01
 -2.61604554263565325E-01 -2.51191393235129790E-01 -2.40481922523437530E-01
 -2.29502244320263116E-01 -2.18281284356583227E-01 -2.06850860244693568E-01
 -1.95245736514789797E-01 -1.83503664324697974E-01 -1.71665403702968677E-01
 -1.59774726073983714E-01 -1.47878394711523115E-01 -1.36026120677462697E-01
 -1.24270491728041749E-01 -1.12666871615149086E-01 -1.01273267178252052E-01
 -9.01501606182302240E-02 -7.93603043722034551E-02 -6.89684760734156355E-02
 -5.90411911876949358E-02 -4.96463710733930363E-02 -4.08529644157560809E-02
 -3.27305202700684042E-02 -2.53487112804833339E-02 -1.87768060317062002E-02
 -1.30830899796933360E-02 -8.33423476732177496E-03 -4.59461303168662120E-03
 -1.92550315392246317E-03 -3.83295800228419575E-04  7.19281066974090272E-06
  5.15807236114442824E-07  3.64520196612094536E-08  2.53909216179805105E-09
  1.74269015050965457E-10  1.17756437979359092E-11  7.82253521389015777E-13
  5.09734668195898745E-14  3.24733418493943076E-15  2.01234428137601693E-16
  1.20342132735466679E-17  6.85270903217551104E-19  3.62355513691786220E-20
  1.68146329055303189E-21  5.69828630460818462E-23 -1.98633133668876444E-25
 -2.94324837457225291E-25 -3.91431980992000162E-26 -3.95390046144342736E-27
 -3.55330096983786076E-28 -2.98860691567357813E-29 -2.40638607520638714E-30
 -1.87724347538167681E-31 -1.42879334503248655E-32 -1.06558196489971059E-33
 -7.80833755667929411E-35 -5.63146386667492116E-36  0.00000000000000000E+00
  0.00000000000000000E+00  0.00000000000000000E+00  0.00000000000000000E+00
  0.00000000000000000E+00  0.00000000000000000E+00  0.00000000000000000E+00
  0.00000000000000000E+00  0.00000000000000000E+00  0.00000000000000000E+00
  0.00000000000000000E+00  0.00000000000000000E+00  0.00000000000000000E+00
  0.00000000000000000E+00  0.00000000000000000E+00  0.00000000000000000E+00
  0.00000000000000000E+00  0.00000000000000000E+00  0.00000000000000000E+00
  0.00000000000000000E+00  0.00000000000000000E+00  0.00000000000000000E+00
  0.00000000000000000E+00  0.00000000000000000E+00  0.00000000000000000E+00
  0.00000000000000000E+00  0.00000000000000000E+00  0.00000000000000000E+00
  0.00000000000000000E+00  0.00000000000000000E+00  0.00000000000000000E+00
  0.00000000000000000E+00  0.00000000000000000E+00  0.00000000000000000E+00
  0.00000000000000000E+00  0.00000000000000000E+00  0.00000000000000000E+00
  0.00000000000000000E+00  0.00000000000000000E+00  0.00000000000000000E+00
  0.00000000000000000E+00  0.00000000000000000E+00  0.00000000000000000E+00
  0.00000000000000000E+00  0.00000000000000000E+00  0.00000000000000000E+00
  0.00000000000000000E+00  0.00000000000000000E+00  0.00000000000000000E+00
  0.00000000000000000E+00  0.00000000000000000E+00  0.00000000000000000E+00
  0.00000000000000000E+00  0.00000000000000000E+00  0.00000000000000000E+00
  0.00000000000000000E+00  0.00000000000000000E+00  0.00000000000000000E+00
  0.00000000000000000E+00  0.00000000000000000E+00  0.00000000000000000E+00
  0.00000000000000000E+00  0.00000000000000000E+00  0.00000000000000000E+00
  0.00000000000000000E+00  0.00000000000000000E+00  0.00000000000000000E+00
  0.00000000000000000E+00  0.00000000000000000E+00  0.00000000000000000E+00
  0.00000000000000000E+00  0.00000000000000000E+00  0.00000000000000000E+00
  0.00000000000000000E+00  0.00000000000000000E+00  0.00000000000000000E+00
  0.00000000000000000E+00  0.00000000000000000E+00  0.00000000000000000E+00
  0.00000000000000000E+00  0.00000000000000000E+00  0.00000000000000000E+00
  0.00000000000000000E+00  0.00000000000000000E+00  0.00000000000000000E+00
  0.00000000000000000E+00  0.00000000000000000E+00  0.00000000000000000E+00
  0.00000000000000000E+00  0.00000000000000000E+00  0.00000000000000000E+00
  0.00000000000000000E+00  0.00000000000000000E+00  0.00000000000000000E+00
  0.00000000000000000E+00  0.00000000000000000E+00  0.00000000000000000E+00
  0.00000000000000000E+00  0.00000000000000000E+00  0.00000000000000000E+00
  0.00000000000000000E+00  0.00000000000000000E+00  0.00000000000000000E+00
  0.00000000000000000E+00  0.00000000000000000E+00  0.00000000000000000E+00
  0.00000000000000000E+00  0.00000000000000000E+00  0.00000000000000000E+00
  0.00000000000000000E+00  0.00000000000000000E+00  0.00000000000000000E+00
  0.00000000000000000E+00  0.00000000000000000E+00  0.00000000000000000E+00
  0.00000000000000000E+00  0.00000000000000000E+00  0.00000000000000000E+00
  0.00000000000000000E+00  0.00000000000000000E+00  0.00000000000000000E+00
  0.00000000000000000E+00  0.00000000000000000E+00  0.00000000000000000E+00
  0.00000000000000000E+00  0.00000000000000000E+00  0.00000000000000000E+00
  0.00000000000000000E+00  0.00000000000000000E+00  0.00000000000000000E+00
  0.00000000000000000E+00  0.00000000000000000E+00  0.00000000000000000E+00
  0.00000000000000000E+00  0.00000000000000000E+00  0.00000000000000000E+00
  0.00000000000000000E+00  0.00000000000000000E+00  0.00000000000000000E+00
  0.00000000000000000E+00  0.00000000000000000E+00  0.00000000000000000E+00
  0.00000000000000000E+00  0.00000000000000000E+00  0.00000000000000000E+00
  0.00000000000000000E+00  0.00000000000000000E+00  0.00000000000000000E+00
  0.00000000000000000E+00  0.00000000000000000E+00  0.00000000000000000E+00
  0.00000000000000000E+00  0.00000000000000000E+00  0.00000000000000000E+00
  0.00000000000000000E+00  0.00000000000000000E+00  0.00000000000000000E+00
  0.00000000000000000E+00  0.00000000000000000E+00  0.00000000000000000E+00
  0.00000000000000000E+00  0.00000000000000000E+00  0.00000000000000000E+00
                       </PP_QIJL.1.2.0>
 <PP_QIJL.1.3.1 type="real" size="   999" columns="3" first_index=" 1" second_index=" 3" composite_index=" 4" angular_momentum="1">
 -3.21646516626612835E-13 -3.33937272335320840E-13 -3.46697682362339215E-13
 -3.59945693136914707E-13 -3.73699936857184059E-13 -3.87979757694775336E-13
 -4.02805239000735604E-13 -4.18197231551039563E-13 -4.34177382871437454E-13
 -4.50768167682865328E-13 -4.67992919510203597E-13 -4.85875863498892261E-13
 -5.04442150485546890E-13 -5.23717892370458335E-13 -5.43730198841743842E-13
 -5.64507215502821115E-13 -5.86078163456807764E-13 -6.08473380403487236E-13
 -6.31724363306708147E-13 -6.55863812692196984E-13 -6.80925678638022865E-13
 -7.06945208522501716E-13 -7.33958996596644294E-13 -7.62005035450820949E-13
 -7.91122769448111203E-13 -8.21353150199447897E-13 -8.52738694158540802E-13
 -8.85323542417648650E-13 -9.19153522788281400E-13 -9.54276214254075751E-13
 -9.90741013886586802E-13 -1.02859920631807824E-12 -1.06790403586893133E-12
 -1.10871078143128349E-12 -1.15107683421406901E-12 -1.19506177845881249E-12
 -1.24072747523984286E-12 -1.28813814946656437E-12 -1.33736048021032317E-12
 -1.38846369448287135E-12 -1.44151966459816514E-12 -1.49660300925472572E-12
 -1.55379119848041557E-12 -1.61316466258742147E-12 -1.67480690529067995E-12
 -1.73880462114862007E-12 -1.80524781749176273E-12 -1.87422994101026628E-12
 -1.94584800917875705E-12 -2.02020274670313574E-12 -2.09739872718120782E-12
 -2.17754452017661273E-12 -2.26075284391253318E-12 -2.34714072380035632E-12
 -2.43682965702582981E-12 -2.52994578342453941E-12 -2.62662006288674895E-12
 -2.72698845954135650E-12 -2.83119213297777350E-12 -2.93937763677487016E-12
 -3.05169712461602337E-12 -3.16830856428026780E-12 -3.28937595981051388E-12
 -3.41506958217114787E-12 -3.54556620871968528E-12 -3.68104937182889285E-12
 -3.82170961700947574E-12 -3.96774477089597948E-12 -4.11936021947306112E-12
 -4.27676919693333502E-12 -4.44019308557296003E-12 -4.60986172714696838E-12
 -4.78601374612196066E-12 -4.96889688528108334E-12 -5.15876835415297063E-12
 -5.35589519075502586E-12 -5.56055463715939023E-12 -5.77303452941037463E-12
 -5.99363370234103008E-12 -6.22266240985890746E-12 -6.46044276129151605E-12
 -6.70730917440547883E-12 -6.96360884573663377E-12 -7.22970223889197237E-12
 -7.50596359151108776E-12 -7.79278144159915316E-12 -8.09055917397234455E-12
 -8.39971558758414862E-12 -8.72068548452996630E-12 -9.05392028155920381E-12
 -9.39988864495409959E-12 -9.75907714966856798E-12 -1.01319909636543258E-11
 -1.05191545583361253E-11 -1.09211124462358568E-11 -1.13384299467826905E-11
 -1.17716939813862816E-11 -1.22215138988912782E-11 -1.26885223325742904E-11
 -1.31733760898882473E-11 -1.36767570762053713E-11 -1.41993732538588203E-11
 -1.47419596378307330E-11 -1.53052793294874334E-11 -1.58901245898162341E-11
 -1.64973179536721123E-11 -1.71277133866022411E-11 -1.77821974858750324E-11
 -1.84616907274029721E-11 -1.91671487603128521E-11 -1.98995637509835846E-11
 -2.06599657784429713E-11 -2.14494242830851530E-11 -2.22690495707462714E-11
 -2.31199943742539453E-11 -2.40034554746463801E-11 -2.49206753843418347E-11
 -2.58729440946251130E-11 -2.68616008899088956E-11 -2.78880362313216113E-11
 -2.89536937122707855E-11 -3.00600720887326275E-11 -3.12087273871225655E-11
 -3.24012750927119720E-11 -3.36393924216684916E-11 -3.49248206799150803E-11
 -3.62593677121263574E-11 -3.76449104443054444E-11 -3.90833975235177358E-11
 -4.05768520584943895E-11 -4.21273744649586783E-11 -4.37371454196788940E-11
 -4.54084289274008513E-11 -4.71435755049739509E-11 -4.89450254871487707E-11
 -5.08153124586962973E-11 -5.27570668176736836E-11 -5.47730194748509145E-11
 -5.68660056944987750E-11 -5.90389690819409411E-11 -6.12949657234789365E-11
 -6.36371684845101026E-11 -6.60688714718864661E-11 -6.85934946667883594E-11
 -7.12145887346289291E-11 -7.39358400187552813E-11 -7.67610757249670112E-11
 -7.96942693041468542E-11 -8.27395460405709598E-11 -8.59011888537595762E-11
 -8.91836443220285010E-11 -9.25915289362098579E-11 -9.61296355923418373E-11
 -9.98029403324553504E-11 -1.03616609342938924E-10 -1.07576006220326471E-10
 -1.11686699514721129E-10 -1.15954470561471168E-10 -1.20385321612107466E-10
 -1.24985484275979612E-10 -1.29761428284464876E-10 -1.34719870590070547E-10
 -1.39867784813234106E-10 -1.45212411050101281E-10 -1.50761266055078311E-10
 -1.56522153812480981E-10 -1.62503176512141541E-10 -1.68712745944418891E-10
 -1.75159595330631585E-10 -1.81852791605553917E-10 -1.88801748169250961E-10
 -1.96016238126181386E-10 -2.03506408030194830E-10 -2.11282792154750166E-10
 -2.19356327308423996E-10 -2.27738368216551976E-10 -2.36440703490624097E-10
 -2.45475572207906178E-10 -2.54855681124596064E-10 -2.64594222546727800E-10
 -2.74704892883957875E-10 -2.85201911912320690E-10 -2.96100042773053844E-10
 -3.07414612735614434E-10 -3.19161534754083676E-10 -3.31357329847291321E-10
 -3.44019150334112834E-10 -3.57164803956639598E-10 -3.70812778925132366E-10
 -3.84982269919990002E-10 -3.99693205087305967E-10 -4.14966274065963128E-10
 -4.30822957085699465E-10 -4.47285555177062935E-10 -4.64377221535744379E-10
 -4.82121994085397647E-10 -5.00544829284730224E-10 -5.19671637226440339E-10
 -5.39529318077339194E-10 -5.60145799910907870E-10 -5.81550077985513254E-10
 -6.03772255523502333E-10 -6.26843586048547714E-10 -6.50796517340759474E-10
 -6.75664737071419508E-10 -7.01483220181486129E-10 -7.28288278070495409E-10
 -7.56117609665089949E-10 -7.85010354438934444E-10 -8.15007147458611834E-10
 -8.46150176532948040E-10 -8.78483241546054341E-10 -9.12051816057626915E-10
 -9.46903111257089855E-10 -9.83086142361496149E-10 -1.02065179755066128E-09
 -1.05965290953636019E-09 -1.10014432986632673E-09 -1.14218300606754661E-09
 -1.18582806173726485E-09 -1.23114087969447168E-09 -1.27818518830865965E-09
 -1.32702715112738931E-09 -1.37773545992866113E-09 -1.43038143132891336E-09
 -1.48503910708265520E-09 -1.54178535821456654E-09 -1.60069999313078620E-09
 -1.66186586986116846E-09 -1.72536901259057514E-09 -1.79129873264295862E-09
 -1.85974775408840451E-09 -1.93081234414984473E-09 -2.00459244859275646E-09
 -2.08119183228832941E-09 -2.16071822514772268E-09 -2.24328347363267086E-09
 -2.32900369805552344E-09 -2.41799945588995233E-09 -2.51039591132192076E-09
 -2.60632301127951205E-09 -2.70591566818897950E-09 -2.80931394971420383E-09
 -2.91666327574634888E-09 -3.02811462292066359E-09 -3.14382473694823420E-09
 -3.26395635306103194E-09 -3.38867842488064181E-09 -3.51816636203205063E-09
 -3.65260227683726852E-09 -3.79217524043505473E-09 -3.93708154868751282E-09
 -4.08752499824715621E-09 -4.24371717317271112E-09 -4.40587774249707624E-09
 -4.57423476916523598E-09 -4.74902503077744811E-09 -4.93049435258798979E-09
 -5.11889795322819967E-09 -5.31450080364011463E-09 -5.51757799972482397E-09
 -5.72841514923054342E-09 -5.94730877342365001E-09 -6.17456672410790422E-09
 -6.41050861657862680E-09 -6.65546627911985992E-09 -6.90978421967750366E-09
 -7.17382011036433400E-09 -7.44794529047788790E-09 -7.73254528873945745E-09
 -8.02802036548789142E-09 -8.33478607559069537E-09 -8.65327385286464912E-09
 -8.98393161682723853E-09 -9.32722440263198628E-09 -9.68363501507435950E-09
 -1.00536647075873167E-08 -1.04378338871809344E-08 -1.08366828463187174E-08
 -1.12507725227588302E-08 -1.16806852884283449E-08 -1.21270257684413275E-08
 -1.25904216914113500E-08 -1.30715247722540547E-08 -1.35710116287219988E-08
 -1.40895847329602398E-08 -1.46279733994205783E-08 -1.51869348105233070E-08
 -1.57672550815102056E-08 -1.63697503659848478E-08 -1.69952680036945033E-08
 -1.76446877121690956E-08 -1.83189228238920486E-08 -1.90189215707425171E-08
 -1.97456684175149411E-08 -2.05001854463920817E-08 -2.12835337943179251E-08
 -2.20968151452906514E-08 -2.29411732796747669E-08 -2.38177956827117743E-08
 -2.47279152144898759E-08 -2.56728118437214193E-08 -2.66538144477650204E-08
 -2.76723026814255172E-08 -2.87297089171579606E-08 -2.98275202594034430E-08
 -3.09672806358895358E-08 -3.21505929688360437E-08 -3.33791214291194571E-08
 -3.46545937765644855E-08 -3.59788037896532091E-08 -3.73536137880683605E-08
 -3.87809572516186390E-08 -4.02628415392269713E-08 -4.18013507118051272E-08
 -4.33986484629823896E-08 -4.50569811618108165E-08 -4.67786810117240402E-08
 -4.85661693301916446E-08 -5.04219599536791499E-08 -5.23486627727004585E-08
 -5.43489874019338475E-08 -5.64257469905616514E-08 -5.85818621781899344E-08
 -6.08203652019098495E-08 -6.31444041602737967E-08 -6.55572474401817463E-08
 -6.80622883129016768E-08 -7.06630497056850864E-08 -7.33631891556860095E-08
 -7.61665039531456417E-08 -7.90769364810756910E-08 -8.20985797589440562E-08
 -8.52356831981571223E-08 -8.84926585774322207E-08 -9.18740862464544007E-08
 -9.53847215665422986E-08 -9.90295015973753301E-08 -1.02813552039179217E-07
 -1.06742194440132182E-07 -1.10820953679119583E-07 -1.15055565734357586E-07
 -1.19451985748803438E-07 -1.24016396403687244E-07 -1.28755216611939542E-07
 -1.33675110543726529E-07 -1.38782996996784420E-07 -1.44086059124720294E-07
 -1.49591754536951776E-07 -1.55307825784482903E-07 -1.61242311246247458E-07
 -1.67403556431324435E-07 -1.73800225712908407E-07 -1.80441314510519246E-07
 -1.87336161937580272E-07 -1.94494463932127419E-07 -2.01926286889112759E-07
 -2.09642081813450124E-07 -2.17652699013691510E-07 -2.25969403356985433E-07
 -2.34603890106744997E-07 -2.43568301365286910E-07 -2.52875243144538735E-07
 -2.62537803088798479E-07 -2.72569568874451648E-07 -2.82984647312489598E-07
 -2.93797684180675105E-07 -3.05023884813209355E-07 -3.16679035476824381E-07
 -3.28779525563338671E-07 -3.41342370629839279E-07 -3.54385236318863239E-07
 -3.67926463192179038E-07 -3.81985092513037882E-07 -3.96580893013125654E-07
 -4.11734388681792890E-07 -4.27466887616604396E-07 -4.43800511975726307E-07
 -4.60758229074202878E-07 -4.78363883667809782E-07 -4.96642231469802297E-07
 -5.15618973947634932E-07 -5.35320794448510854E-07 -5.55775395704474697E-07
 -5.77011538769726762E-07 -5.99059083444804874E-07 -6.21949030244401837E-07
 -6.45713563967731526E-07 -6.70386098932598988E-07 -6.96001325936686330E-07
 -7.22595261011953263E-07 -7.50205296040606311E-07 -7.78870251303658608E-07
 -8.08630430035831856E-07 -8.39527675063373931E-07 -8.71605427604251641E-07
 -9.04908788313245931E-07 -9.39484580657602641E-07 -9.75381416712129548E-07
 -1.01264976546610090E-06 -1.05134202373774248E-06 -1.09151258979580384E-06
 -1.13321793979149021E-06 -1.17651670710793320E-06 -1.22146976473851223E-06
 -1.26814031080954569E-06 -1.31659395736727583E-06 -1.36689882255365224E-06
 -1.41912562630014538E-06 -1.47334778967376682E-06 -1.52964153801454234E-06
 -1.58808600800903398E-06 -1.64876335884997962E-06 -1.71175888763783541E-06
 -1.77716114918596301E-06 -1.84506208039732029E-06 -1.91555712938693370E-06
 -1.98874538953106120E-06 -2.06472973863080491E-06 -2.14361698338514163E-06
 -2.22551800937567321E-06 -2.31054793677318732E-06 -2.39882628198400257E-06
 -2.49047712546250206E-06 -2.58562928592469962E-06 -2.68441650120677568E-06
 -2.78697761602166866E-06 -2.89345677687650951E-06 -3.00400363442364163E-06
 -3.11877355352831625E-06 -3.23792783134694745E-06 -3.36163392372096994E-06
 -3.49006568020288415E-06 -3.62340358804317729E-06 -3.76183502547920680E-06
 -3.90555452468015319E-06 -4.05476404471554816E-06 -4.20967325492881766E-06
 -4.37049982911187869E-06 -4.53746975089163509E-06 -4.71081763075501856E-06
 -4.89078703515529959E-06 -5.07763082815913622E-06 -5.27161152611143666E-06
 -5.47300166581291907E-06 -5.68208418672427014E-06 -5.89915282773010373E-06
 -6.12451253901621416E-06 -6.35847990963453615E-06 -6.60138361135199382E-06
 -6.85356485940191080E-06 -7.11537789078033814E-06 -7.38719046075347465E-06
 -7.66938435826813930E-06 -7.96235594098293180E-06 -8.26651669066513066E-06
 -8.58229378972645886E-06 -8.91013071970002083E-06 -9.25048788249116780E-06
 -9.60384324526628124E-06 -9.97069300987622979E-06 -1.03515523077451739E-05
 -1.07469559211902168E-05 -1.11574590321742473E-05 -1.15836379995316206E-05
 -1.20260911657459895E-05 -1.24854396943998776E-05 -1.29623284394579855E-05
 -1.34574268475899938E-05 -1.39714298947837359E-05 -1.45050590585470551E-05
 -1.50590633270451316E-05 -1.56342202465709876E-05 -1.62313370087991979E-05
 -1.68512515793274169E-05 -1.74948338690666637E-05 -1.81629869501001505E-05
 -1.88566483176908670E-05 -1.95767912001814622E-05 -2.03244259185949966E-05
 -2.11006012978129712E-05 -2.19064061312774934E-05 -2.27429707012369440E-05
 -2.36114683566300782E-05 -2.45131171507822465E-05 -2.54491815411676508E-05
 -2.64209741535768300E-05 -2.74298576131147518E-05 -2.84772464445463043E-05
 -2.95646090445987473E-05 -3.06934697289286111E-05 -3.18654108565610808E-05
 -3.30820750347138814E-05 -3.43451674070264032E-05 -3.56564580283267452E-05
 -3.70177843291853750E-05 -3.84310536736249574E-05 -3.98982460134800104E-05
 -4.14214166430302864E-05 -4.30026990576647407E-05 -4.46443079204724059E-05
 -4.63485421408002676E-05 -4.81177880689666177E-05 -4.99545228114736277E-05
 -5.18613176712216139E-05 -5.38408417173939855E-05 -5.58958654898529216E-05
 -5.80292648430628073E-05 -6.02440249347439003E-05 -6.25432443646473058E-05
 -6.49301394690403105E-05 -6.74080487766960500E-05 -6.99804376323904544E-05
 -7.26509029941314855E-05 -7.54231784105684227E-05 -7.83011391852656566E-05
 -8.12888077347685142E-05 -8.43903591476361474E-05 -8.76101269518801435E-05
 -9.09526090985140638E-05 -9.44224741691960525E-05 -9.80245678162378173E-05
 -1.01763919443545532E-04 -1.05645749137369863E-04 -1.09675474856058821E-04
 -1.13858719888334389E-04 -1.18201320589956887E-04 -1.22709334408988789E-04
 -1.27389048210236445E-04 -1.32246986909819418E-04 -1.37289922431209208E-04
 -1.42524882994475436E-04 -1.47959162750895223E-04 -1.53600331775505526E-04
 -1.59456246430622367E-04 -1.65535060113804959E-04 -1.71845234404212382E-04
 -1.78395550621789810E-04 -1.85195121814217626E-04 -1.92253405187076251E-04
 -1.99580214993214539E-04 -2.07185735897855053E-04 -2.15080536836543163E-04
 -2.23275585383623729E-04 -2.31782262649541830E-04 -2.40612378725874195E-04
 -2.49778188697648686E-04 -2.59292409243163172E-04 -2.69168235842192315E-04
 -2.79419360614170892E-04 -2.90059990808666404E-04 -3.01104867971184898E-04
 -3.12569287808124889E-04 -3.24469120775467670E-04 -3.36820833416604599E-04
 -3.49641510475523813E-04 -3.62948877812429877E-04 -3.76761326149742447E-04
 -3.91097935677313109E-04 -4.05978501546621978E-04 -4.21423560284650577E-04
 -4.37454417159100872E-04 -4.54093174527616403E-04 -4.71362761204671091E-04
 -4.89286962880835087E-04 -5.07890453630182887E-04 -5.27198828542699174E-04
 -5.47238637519638555E-04 -5.68037420270936836E-04 -5.89623742554921471E-04
 -6.12027233701748288E-04 -6.35278625463192278E-04 -6.59409792232644519E-04
 -6.84453792680416980E-04 -7.10444912850699507E-04 -7.37418710767835965E-04
 -7.65412062600850213E-04 -7.94463210436499308E-04 -8.24611811712459776E-04
 -8.55898990363601793E-04 -8.88367389735676282E-04 -9.22061227322088623E-04
 -9.57026351380882542E-04 -9.93310299490409972E-04 -1.03096235910353213E-03
 -1.07003363016162207E-03 -1.11057708983104101E-03 -1.15264765942614446E-03
 -1.19630227358424814E-03 -1.24159995175937197E-03 -1.28860187210290476E-03
 -1.33737144780069752E-03 -1.38797440593735159E-03 -1.44047886895978155E-03
 -1.49495543881333535E-03 -1.55147728382493155E-03 -1.61012022840883811E-03
 -1.67096284567175074E-03 -1.73408655299483192E-03 -1.79957571067132570E-03
 -1.86751772367914305E-03 -1.93800314666858742E-03 -2.01112579224597401E-03
 -2.08698284263442429E-03 -2.16567496479346065E-03 -2.24730642907921933E-03
 -2.33198523152716893E-03 -2.41982321983907596E-03 -2.51093622315557569E-03
 -2.60544418569521414E-03 -2.70347130433996495E-03 -2.80514617024617925E-03
 -2.91060191455854139E-03 -3.01997635830284850E-03 -3.13341216653216775E-03
 -3.25105700679751298E-03 -3.37306371201190206E-03 -3.49959044777359719E-03
 -3.63080088421054289E-03 -3.76686437240399347E-03 -3.90795612544454860E-03
 -4.05425740416870233E-03 -4.20595570761805957E-03 -4.36324496825692479E-03
 -4.52632575197674594E-03 -4.69540546290782117E-03 -4.87069855305005423E-03
 -5.05242673672462016E-03 -5.24081920983803309E-03 -5.43611287393829055E-03
 -5.63855256503024808E-03 -5.84839128710334596E-03 -6.06589045031002191E-03
 -6.29132011371652793E-03 -6.52495923253034512E-03 -6.76709590968901757E-03
 -7.01802765167464093E-03 -7.27806162839557923E-03 -7.54751493695293707E-03
 -7.82671486908318934E-03 -8.11599918204020977E-03 -8.41571637264948956E-03
 -8.72622595423409517E-03 -9.04789873608213661E-03 -9.38111710508134945E-03
 -9.72627530910923944E-03 -1.00837797417248978E-02 -1.04540492276624965E-02
 -1.08375153085777352E-02 -1.12346225284459984E-02 -1.16458287179557526E-02
 -1.20716052771810793E-02 -1.25124374557543192E-02 -1.29688246296927098E-02
 -1.34412805739612517E-02 -1.39303337297785549E-02 -1.44365274655916618E-02
 -1.49604203305606226E-02 -1.55025862993032407E-02 -1.60636150065543992E-02
 -1.66441119702934320E-02 -1.72446988017856545E-02 -1.78660134008710031E-02
 -1.85087101347137933E-02 -1.91734599981011992E-02 -1.98609507532459019E-02
 -2.05718870469086892E-02 -2.13069905025097678E-02 -2.20669997847439819E-02
 -2.28526706340490410E-02 -2.36647758681095832E-02 -2.45041053474211422E-02
 -2.53714659017150700E-02 -2.62676812138728649E-02 -2.71935916577545587E-02
 -2.81500540861525199E-02 -2.91379415648619147E-02 -3.01581430486303308E-02
 -3.12115629945110690E-02 -3.22991209078992980E-02 -3.34217508162738541E-02
 -3.45804006654052143E-02 -3.57760316325184263E-02 -3.70096173506193615E-02
 -3.82821430379064950E-02 -3.95946045258957005E-02 -4.09480071795844322E-02
 -4.23433647026761756E-02 -4.37816978205727639E-02 -4.52640328335285683E-02
 -4.67914000320400758E-02 -4.83648319662256937E-02 -4.99853615606292018E-02
 -5.16540200655624532E-02 -5.33718348357867384E-02 -5.51398269270232388E-02
 -5.69590085004635094E-02 -5.88303800251821704E-02 -6.07549272681424182E-02
 -6.27336180610728184E-02 -6.47673988333535705E-02 -6.68571908998248643E-02
 -6.90038864922386252E-02 -7.12083445229251960E-02 -7.34713860691361131E-02
 -7.57937895664591021E-02 -7.81762856996909977E-02 -8.06195519796017862E-02
 -8.31242069941376394E-02 -8.56908043228044591E-02 -8.83198261032483722E-02
 -9.10116762394224121E-02 -9.37666732412058140E-02 -9.65850426859377331E-02
 -9.94669092930511728E-02 -1.02412288603860369E-01 -1.05421078259579012E-01
 -1.08493048871843731E-01 -1.11627834481400415E-01 -1.14824922602202811E-01
 -1.18083643849982503E-01 -1.21403161156408618E-01 -1.24782458572256894E-01
 -1.28220329665571176E-01 -1.31715365523946637E-01 -1.35265942372982784E-01
 -1.38870208826629482E-01 -1.42526072789184943E-01 -1.46231188033037474E-01
 -1.49982940481023480E-01 -1.53778434227525629E-01 -1.57614477338154230E-01
 -1.61487567474085603E-01 -1.65393877393894911E-01 -1.69329240393033320E-01
 -1.73289135749005174E-01 -1.77268674248804631E-01 -1.81262583884295975E-01
 -1.85265195811009420E-01 -1.89270430676246493E-01 -1.93271785433513921E-01
 -1.97262320772085997E-01 -2.01234649302974439E-01 -2.05180924655745528E-01
 -2.09092831654442007E-01 -2.12961577755352710E-01 -2.16777885944467508E-01
 -2.20531989308134641E-01 -2.24213627506690133E-01 -2.27812045397718099E-01
 -2.31315994071812692E-01 -2.34713734581829064E-01 -2.37993044664088771E-01
 -2.41141228767215915E-01 -2.44145131721721087E-01 -2.46991156400457545E-01
 -2.49665285736497350E-01 -2.52153109480567961E-01 -2.54439856094670125E-01
 -2.56510430191510985E-01 -2.58349455940598716E-01 -2.59941326870797407E-01
 -2.61270262505425677E-01 -2.62320372269046698E-01 -2.63075727104409463E-01
 -2.63520439232944992E-01 -2.63638750482125983E-01 -2.63415129587143748E-01
 -2.62834378851981187E-01 -2.61881750525200296E-01 -2.60543073207773146E-01
 -2.58804888563085533E-01 -2.56654598541878665E-01 -2.54080623266317362E-01
 -2.51072569637435461E-01 -2.47621410635995298E-01 -2.43719675170579075E-01
 -2.39361648215145162E-01 -2.34543580830604420E-01 -2.29263909506265878E-01
 -2.23523484080266899E-01 -2.17325803301072817E-01 -2.10677256874673313E-01
 -2.03587372603615174E-01 -1.96069066964067229E-01 -1.88138897185543497E-01
 -1.79817312594855672E-01 -1.71128902661848020E-01 -1.62102638840374180E-01
 -1.52772106935336660E-01 -1.43175726347343241E-01 -1.33356952153449781E-01
 -1.23364455578910889E-01 -1.13252278005218976E-01 -1.03079953249207809E-01
 -9.29125924429103633E-02 -8.28209254516887872E-02 -7.28812923975356991E-02
 -6.31755785154302502E-02 -5.37910852746064302E-02 -4.48203304537132946E-02
 -3.63607696932909882E-02 -2.85144319708012031E-02 -2.13874614536591172E-02
 -1.50895583197450840E-02 -9.73331117014981408E-03 -5.43341000069861441E-03
 -2.30566393483941324E-03 -4.64728082219559746E-04  8.80871762644014228E-06
  6.31686346440469885E-07  4.46411789288212307E-08  3.10951405615020076E-09
  2.13419567830373181E-10  1.44211110021188816E-11  9.57991346997668411E-13
  6.24249540646753404E-14  3.97686678924471307E-15  2.46442918571377519E-16
  1.47377696216837088E-17  8.39221016820732771E-19  4.43760797697959699E-20
  2.05921384640590974E-21  6.97843962764998211E-23 -2.43257228096495978E-25
 -3.60446632429153028E-25 -4.79369463320076045E-26 -4.84216730942552541E-27
 -4.35157080065129651E-28 -3.66001492675783784E-29 -2.94699477157990732E-30
 -2.29897719403060346E-31 -1.74978012084688993E-32 -1.30497118130969957E-33
 -9.56252622609251308E-35 -6.89660513847878644E-36  0.00000000000000000E+00
  0.00000000000000000E+00  0.00000000000000000E+00  0.00000000000000000E+00
  0.00000000000000000E+00  0.00000000000000000E+00  0.00000000000000000E+00
  0.00000000000000000E+00  0.00000000000000000E+00  0.00000000000000000E+00
  0.00000000000000000E+00  0.00000000000000000E+00  0.00000000000000000E+00
  0.00000000000000000E+00  0.00000000000000000E+00  0.00000000000000000E+00
  0.00000000000000000E+00  0.00000000000000000E+00  0.00000000000000000E+00
  0.00000000000000000E+00  0.00000000000000000E+00  0.00000000000000000E+00
  0.00000000000000000E+00  0.00000000000000000E+00  0.00000000000000000E+00
  0.00000000000000000E+00  0.00000000000000000E+00  0.00000000000000000E+00
  0.00000000000000000E+00  0.00000000000000000E+00  0.00000000000000000E+00
  0.00000000000000000E+00  0.00000000000000000E+00  0.00000000000000000E+00
  0.00000000000000000E+00  0.00000000000000000E+00  0.00000000000000000E+00
  0.00000000000000000E+00  0.00000000000000000E+00  0.00000000000000000E+00
  0.00000000000000000E+00  0.00000000000000000E+00  0.00000000000000000E+00
  0.00000000000000000E+00  0.00000000000000000E+00  0.00000000000000000E+00
  0.00000000000000000E+00  0.00000000000000000E+00  0.00000000000000000E+00
  0.00000000000000000E+00  0.00000000000000000E+00  0.00000000000000000E+00
  0.00000000000000000E+00  0.00000000000000000E+00  0.00000000000000000E+00
  0.00000000000000000E+00  0.00000000000000000E+00  0.00000000000000000E+00
  0.00000000000000000E+00  0.00000000000000000E+00  0.00000000000000000E+00
  0.00000000000000000E+00  0.00000000000000000E+00  0.00000000000000000E+00
  0.00000000000000000E+00  0.00000000000000000E+00  0.00000000000000000E+00
  0.00000000000000000E+00  0.00000000000000000E+00  0.00000000000000000E+00
  0.00000000000000000E+00  0.00000000000000000E+00  0.00000000000000000E+00
  0.00000000000000000E+00  0.00000000000000000E+00  0.00000000000000000E+00
  0.00000000000000000E+00  0.00000000000000000E+00  0.00000000000000000E+00
  0.00000000000000000E+00  0.00000000000000000E+00  0.00000000000000000E+00
  0.00000000000000000E+00  0.00000000000000000E+00  0.00000000000000000E+00
  0.00000000000000000E+00  0.00000000000000000E+00  0.00000000000000000E+00
  0.00000000000000000E+00  0.00000000000000000E+00  0.00000000000000000E+00
  0.00000000000000000E+00  0.00000000000000000E+00  0.00000000000000000E+00
  0.00000000000000000E+00  0.00000000000000000E+00  0.00000000000000000E+00
  0.00000000000000000E+00  0.00000000000000000E+00  0.00000000000000000E+00
  0.00000000000000000E+00  0.00000000000000000E+00  0.00000000000000000E+00
  0.00000000000000000E+00  0.00000000000000000E+00  0.00000000000000000E+00
  0.00000000000000000E+00  0.00000000000000000E+00  0.00000000000000000E+00
  0.00000000000000000E+00  0.00000000000000000E+00  0.00000000000000000E+00
  0.00000000000000000E+00  0.00000000000000000E+00  0.00000000000000000E+00
  0.00000000000000000E+00  0.00000000000000000E+00  0.00000000000000000E+00
  0.00000000000000000E+00  0.00000000000000000E+00  0.00000000000000000E+00
  0.00000000000000000E+00  0.00000000000000000E+00  0.00000000000000000E+00
  0.00000000000000000E+00  0.00000000000000000E+00  0.00000000000000000E+00
  0.00000000000000000E+00  0.00000000000000000E+00  0.00000000000000000E+00
  0.00000000000000000E+00  0.00000000000000000E+00  0.00000000000000000E+00
  0.00000000000000000E+00  0.00000000000000000E+00  0.00000000000000000E+00
  0.00000000000000000E+00  0.00000000000000000E+00  0.00000000000000000E+00
  0.00000000000000000E+00  0.00000000000000000E+00  0.00000000000000000E+00
  0.00000000000000000E+00  0.00000000000000000E+00  0.00000000000000000E+00
  0.00000000000000000E+00  0.00000000000000000E+00  0.00000000000000000E+00
  0.00000000000000000E+00  0.00000000000000000E+00  0.00000000000000000E+00
  0.00000000000000000E+00  0.00000000000000000E+00  0.00000000000000000E+00
  0.00000000000000000E+00  0.00000000000000000E+00  0.00000000000000000E+00
  0.00000000000000000E+00  0.00000000000000000E+00  0.00000000000000000E+00
  0.00000000000000000E+00  0.00000000000000000E+00  0.00000000000000000E+00
                       </PP_QIJL.1.3.1>
 <PP_QIJL.1.4.1 type="real" size="   999" columns="3" first_index=" 1" second_index=" 4" composite_index=" 7" angular_momentum="1">
  4.34863925508509656E-13  4.51480944498830241E-13  4.68732932966309943E-13
  4.86644154362494921E-13  5.05239799293854391E-13  5.24546020950225754E-13
  5.44589971887045907E-13  5.65399842213087824E-13  5.87004899237458750E-13
  6.09435528631588873E-13  6.32723277164061120E-13  6.56900897068453100E-13
  6.82002392106581339E-13  7.08063065391882658E-13  7.35119569040218878E-13
  7.63209955717965257E-13  7.92373732159852749E-13  8.22651914731788452E-13
  8.54087087116892878E-13  8.86723460205844017E-13  9.20606934275676934E-13
  9.55785163544627881E-13  9.92307623193751453E-13  1.03022567894950376E-12
  1.06959265932527234E-12  1.11046393062339730E-12  1.15289697480312004E-12
  1.19695147032406544E-12  1.24268937607893218E-12  1.29017501853334776E-12
  1.33947518219556792E-12  1.39065920354322128E-12  1.44379906853908150E-12
  1.49896951387324113E-12  1.55624813207388511E-12  1.61571548063449879E-12
  1.67745519531119441E-12  1.74155410774919552E-12  1.80810236760415098E-12
  1.87719356932998997E-12  1.94892488381141640E-12  2.02339719502657903E-12
  2.10071524193170539E-12  2.18098776576750347E-12  2.26432766299451241E-12
  2.35085214407219538E-12  2.44068289830558647E-12  2.53394626499079954E-12
  2.63077341110051467E-12  2.73130051575914188E-12  2.83566896176703839E-12
  2.94402553444347451E-12  3.05652262806749821E-12  3.17331846020761916E-12
  3.29457729424118225E-12  3.42046967037686461E-12  3.55117264550482430E-12
  3.68687004221217132E-12  3.82775270731365841E-12  3.97401878026148117E-12
  4.12587397181143355E-12  4.28353185333750523E-12  4.44721415720181485E-12
  4.61715108860213799E-12  4.79358164933596380E-12  4.97675397393593437E-12
  5.16692567864998050E-12  5.36436422375645470E-12  5.56934728972418440E-12
  5.78216316774632304E-12  6.00311116519717760E-12  6.23250202658250709E-12
  6.47065837057499982E-12  6.71791514374993774E-12  6.97462009165878187E-12
  7.24113424790365482E-12  7.51783244190000297E-12  7.80510382604233978E-12
  8.10335242301352292E-12  8.41299769400827046E-12  8.73447512866929178E-12
  9.06823685756612972E-12  9.41475228807828664E-12  9.77450876457617508E-12
  1.01480122538295681E-11  1.05357880566062472E-11  1.09383815464625405E-11
  1.13563589367646692E-11  1.17903080770190039E-11  1.22408392796323021E-11
  1.27085861782636002E-11  1.31942066189755073E-11  1.36983835854385089E-11
  1.42218261594886999E-11  1.47652705183906238E-11  1.53294809702074112E-11
  1.59152510287343936E-11  1.65234045295080841E-11  1.71547967884602587E-11
  1.78103158048463728E-11  1.84908835101398369E-11  1.91974570646498594E-11
  1.99310302036849663E-11  2.06926346351560814E-11  2.14833414905854177E-11
  2.23042628315604996E-11  2.31565532137531554E-11  2.40414113107026789E-11
  2.49600815996471159E-11  2.59138561117735110E-11  2.69040762493479762E-11
  2.79321346722827467E-11  2.89994772567924037E-11  3.01076051288940493E-11
  3.12580767756117027E-11  3.24525102368535878E-11  3.36925853810459722E-11
  3.49800462677231112E-11  3.63167036003963558E-11  3.77044372731522850E-11
  3.91451990145611926E-11  4.06410151326149262E-11  4.21939893645537154E-11
  4.38063058355907466E-11  4.54802321306955182E-11  4.72181224837553212E-11
  4.90224210886018010E-11  5.08956655365577856E-11  5.28404903853395361E-11
  5.48596308643342163E-11  5.69559267214620352E-11  5.91323262170357837E-11
  6.13918902702330169E-11  6.37377967640130412E-11  6.61733450145329701E-11
  6.87019604113498874E-11  7.13271992349321083E-11  7.40527536582591500E-11
  7.68824569395412400E-11  7.98202888133629096E-11  8.28703810878335537E-11
  8.60370234556141459E-11  8.93246695269963760E-11  9.27379430935164286E-11
  9.62816446309137318E-11  9.99607580505811844E-11  1.03780457708999252E-10
  1.07746115685016534E-10  1.11863309335207517E-10  1.16137829137935578E-10
  1.20575686837154307E-10  1.25183123897395555E-10  1.29966620281842463E-10
  1.34932903565827542E-10  1.40088958398575024E-10  1.45442036326496928E-10
  1.50999665991851311E-10  1.56769663721115467E-10  1.62760144517958600E-10
  1.68979533476276977E-10  1.75436577629345556E-10  1.82140358251743079E-10
  1.89100303631362248E-10  1.96326202329459731E-10  2.03828216947398247E-10
  2.11616898419444879E-10  2.19703200851717801E-10  2.28098496928163368E-10
  2.36814593905221733E-10  2.45863750217679168E-10  2.55258692719062989E-10
  2.65012634580819504E-10  2.75139293875457993E-10  2.85652912869789686E-10
  2.96568278055395605E-10  3.07900740944502048E-10  3.19666239660495602E-10
  3.31881321353459318E-10  3.44563165472245097E-10  3.57729607925814716E-10
  3.71399166167834663E-10  3.85591065239791540E-10  4.00325264809269265E-10
  4.15622487241407546E-10  4.31504246743015701E-10  4.47992879620350185E-10
  4.65111575693080206E-10  4.82884410908650966E-10  5.01336381202892924E-10
  5.20493437654507711E-10  5.40382522982879263E-10  5.61031609440517483E-10
  5.82469738153446705E-10  6.04727059964861960E-10  6.27834877839495144E-10
  6.51825690888329467E-10  6.76733240075558149E-10  7.02592555672110674E-10
  7.29440006522453770E-10  7.57313351193952679E-10  7.86251791080754960E-10
  8.16296025536852251E-10  8.47488309115885534E-10  8.79872510998160909E-10
  9.13494176688502695E-10  9.48400592071674149E-10  9.84640849915439896E-10
  1.02226591891487206E-09  1.06132871537492195E-09  1.10188417763209947E-09
  1.14398934331997485E-09  1.18770342958705399E-09  1.23308791637996809E-09
  1.28020663290904485E-09  1.32912584741782322E-09  1.37991436038289056E-09
  1.43264360127495461E-09  1.48738772901735161E-09  1.54422373628325808E-09
  1.60323155777819409E-09  1.66449418266027273E-09  1.72809777125609863E-09
  1.79413177623663340E-09  1.86268906842337648E-09  1.93386606740172698E-09
  2.00776287712541390E-09  2.08448342670239279E-09  2.16413561656058163E-09
  2.24683147019863369E-09  2.33268729173546159E-09  2.42182382947990452E-09
  2.51436644575060070E-09  2.61044529318498918E-09  2.71019549778527046E-09
  2.81375734895886250E-09  2.92127649682053133E-09  3.03290415703371674E-09
  3.14879732347911977E-09  3.26911898904968427E-09  3.39403837488236571E-09
  3.52373116834927240E-09  3.65837977014261787E-09  3.79817355080118504E-09
  3.94330911703902253E-09  4.09399058825077748E-09  4.25042988358279888E-09
  4.41284701997335742E-09  4.58147042158162528E-09  4.75653724103992061E-09
  4.93829369298182110E-09  5.12699540031430915E-09  5.32290775372170424E-09
  5.52630628490646532E-09  5.73747705409184103E-09  5.95671705233173940E-09
  6.18433461919271204E-09  6.42064987639657919E-09  6.66599517803249836E-09
  6.92071557797218929E-09  7.18516931514579085E-09  7.45972831735993666E-09
  7.74477872436781255E-09  8.04072143092570846E-09  8.34797265060018580E-09
  8.66696450111922273E-09  8.99814561208933796E-09  9.34198175593454131E-09
  9.69895650294385049E-09  1.00695719013480887E-08  1.04543491833834860E-08
  1.08538294983340510E-08  1.12685746735835983E-08  1.16991680047484750E-08
  1.21462150760014150E-08  1.26103446117398807E-08  1.30922093607976340E-08
  1.35924870144421417E-08  1.41118811594482226E-08  1.46511222675898816E-08
  1.52109687229405420E-08  1.57922078884257168E-08  1.63956572131299470E-08
  1.70221653819136082E-08  1.76726135089560232E-08  1.83479163769043957E-08
  1.90490237233705754E-08  1.97769215765844596E-08  2.05326336420817499E-08
  2.13172227423780921E-08  2.21317923116520508E-08  2.29774879475385789E-08
  2.38554990222168481E-08  2.47670603550568872E-08  2.57134539491768643E-08
  2.66960107943525333E-08  2.77161127388154496E-08  2.87751944325714744E-08
  2.98747453449708199E-08  3.10163118593676275E-08  3.22014994478155743E-08
  3.34319749288556379E-08  3.47094688115715691E-08  3.60357777292076907E-08
  3.74127669657738081E-08  3.88423730791880062E-08  4.03266066246450834E-08
  4.18675549820406931E-08  4.34673852914269017E-08  4.51283475006273623E-08
  4.68527775292957028E-08  4.86431005538659169E-08  5.05018344180140330E-08
  5.24315931734273045E-08  5.44350907558582079E-08  5.65151448016318421E-08
  5.86746806099714258E-08  6.09167352567152057E-08  6.32444618652076655E-08
  6.56611340403700182E-08  6.81701504721832371E-08  7.07750397150552541E-08
  7.34794651497929312E-08  7.62872301351557541E-08  7.92022833562325746E-08
  8.22287243771609869E-08  8.53708094059942597E-08  8.86329572798219926E-08
  9.20197556785586871E-08  9.55359675761359309E-08  9.91865379381674469E-08
  1.02976600675500147E-07  1.06911485863430072E-07  1.10996727236728120E-07
  1.15238069971013373E-07  1.19641478761416385E-07  1.24213146209881479E-07
  1.28959501532903580E-07  1.33887219601938445E-07  1.39003230329190624E-07
  1.44314728411978295E-07  1.49829183449367006E-07  1.55554350445296778E-07
  1.61498280712962287E-07  1.67669333195771636E-07  1.74076186220801891E-07
  1.80727849701261790E-07  1.87633677805121033E-07  1.94803382107707264E-07
  2.02247045246756740E-07  2.09975135099112502E-07  2.17998519498987527E-07
  2.26328481518483860E-07  2.34976735331841481E-07  2.43955442685704040E-07
  2.53277229998559157E-07  2.62955206113369054E-07  2.73002980728353076E-07
  2.83434683531809938E-07  2.94264984067869696E-07  3.05509112361094429E-07
  3.17182880328898926E-07  3.29302704011888140E-07  3.41885626653338338E-07
  3.54949342660248875E-07  3.68512222479635499E-07  3.82593338425007065E-07
  3.97212491489319583E-07  4.12390239182067425E-07  4.28147924429616559E-07
  4.44507705579390217E-07  4.61492587550039955E-07  4.79126454171370254E-07
  4.97434101759443734E-07  5.16441273974011070E-07  5.36174698007250137E-07
  5.56662122154618060E-07  5.77932354820599647E-07  6.00015305014133497E-07
  6.22942024390568985E-07  6.46744750899217699E-07  6.71456954097772769E-07
  6.97113382197238834E-07  7.23750110903431400E-07  7.51404594123610437E-07
  7.80115716609467308E-07  8.09923848610345126E-07  8.40870902613448023E-07
  8.73000392250680024E-07  9.06357493454805218E-07  9.40989107950789031E-07
  9.76943929171421598E-07  1.01427251068976412E-06  1.05302733726445181E-06
  1.09326289859755089E-06  1.13503576590850845E-06  1.17840467143161741E-06
  1.22343059094857336E-06  1.27017682947192869E-06  1.31870911019962066E-06
  1.36909566686544585E-06  1.42140733961496805E-06  1.47571767454138795E-06
  1.53210302702099835E-06  1.59064266899313813E-06  1.65141890033512724E-06
  1.71451716448836665E-06  1.78002616849774828E-06  1.84803800763269131E-06
  1.91864829476453554E-06  1.99195629468168979E-06  2.06806506353080479E-06
  2.14708159357945036E-06  2.22911696350320299E-06  2.31428649440775313E-06
  2.40270991180471301E-06  2.49451151376806210E-06  2.58982034550686512E-06
  2.68877038059883547E-06  2.79150070913860191E-06  2.89815573306427697E-06
  3.00888536893582611E-06  3.12384525844929223E-06  3.24319698698156423E-06
  3.36710831047179544E-06  3.49575339095696995E-06  3.62931304109142991E-06
  3.76797497799251545E-06  3.91193408676763204E-06  4.06139269409146575E-06
  4.21656085221609025E-06  4.37765663381130187E-06  4.54490643804759325E-06
  4.71854530834977827E-06  4.89881726226567585E-06  5.08597563391096880E-06
  5.28028342946901231E-06  5.48201369624244615E-06  5.69144990577231990E-06
  5.90888635156016451E-06  6.13462856194847980E-06  6.36899372873645919E-06
  6.61231115212950032E-06  6.86492270264372439E-06  7.12718330061047540E-06
  7.39946141394990568E-06  7.68213957490842620E-06  7.97561491648090786E-06
  8.28029972926595682E-06  8.59662203953085672E-06  8.92502620929223207E-06
  9.26597355924885510E-06  9.61994301543504954E-06  9.98743178049538887E-06
  1.03689560305161947E-05  1.07650516383840487E-05  1.11762749246786675E-05
  1.16032034371453769E-05  1.20464367598319054E-05  1.25065973530153684E-05
  1.29843314250875674E-05  1.34803098376109830E-05  1.39952290448037946E-05
  1.45298120687591469E-05  1.50848095117539977E-05  1.56610006070529800E-05
  1.62591943096666078E-05  1.68802304285774652E-05  1.75249808020053748E-05
  1.81943505173417742E-05  1.88892791774443915E-05  1.96107422150476418E-05
  2.03597522571094818E-05  2.11373605409844927E-05  2.19446583843835737E-05
  2.27827787111544914E-05  2.36528976349936516E-05  2.45562361032790785E-05
  2.54940616032961407E-05  2.64676899332134037E-05  2.74784870402536677E-05
  2.85278709285971917E-05  2.96173136396491417E-05  3.07483433074015068E-05
  3.19225462917218034E-05  3.31415693925072918E-05  3.44071221477521699E-05
  3.57209792186900850E-05  3.70849828652912631E-05  3.85010455155168074E-05
  3.99711524318583419E-05  4.14973644788234781E-05  4.30818209951635525E-05
  4.47267427747807198E-05  4.64344351603982852E-05  4.82072912542297601E-05
  5.00477952500388729E-05  5.19585258911459783E-05  5.39421600591044926E-05
  5.60014764979466310E-05  5.81393596790779848E-05  6.03588038120881596E-05
  6.26629170069406143E-05  6.50549255932033780E-05  6.75381786021942213E-05
  7.01161524181271960E-05  7.27924556045730339E-05  7.55708339127771664E-05
  7.84551754786183374E-05  8.14495162152415722E-05  8.45580454086539683E-05
  8.77851115238400767E-05  9.11352282292298544E-05  9.46130806476354715E-05
  9.82235318420729566E-05  1.01971629545185950E-04  1.05862613141309260E-04
  1.09901920910537637E-04  1.14095197544501005E-04  1.18448301943902446E-04
  1.22967315308237070E-04  1.27658549528482889E-04  1.32528555893949744E-04
  1.37584134124866354E-04  1.42832341742707772E-04  1.48280503790692740E-04
  1.53936222917323595E-04  1.59807389836304388E-04  1.65902194176643485E-04
  1.72229135737242715E-04  1.78797036160777297E-04  1.85615051042199551E-04
  1.92692682487737282E-04  2.00039792140821010E-04  2.07666614691947205E-04
  2.15583771890086827E-04  2.23802287073860177E-04  2.32333600241336303E-04
  2.41189583677974847E-04  2.50382558162900721E-04  2.59925309774403112E-04
  2.69831107316274897E-04  2.80113720387345120E-04  2.90787438117332594E-04
  3.01867088592929855E-04  3.13368058998853612E-04  3.25306316499423057E-04
  3.37698429887108053E-04  3.50561592025372621E-04  3.63913643114054846E-04
  3.77773094806469942E-04  3.92159155208405695E-04  4.07091754790162442E-04
  4.22591573243837103E-04  4.38680067319093870E-04  4.55379499671763389E-04
  4.72712968760721677E-04  4.90704439829654370E-04  5.09378777011486729E-04
  5.28761776594471335E-04  5.48880201490169997E-04  5.69761816944832538E-04
  5.91435427536988198E-04  6.13930915505402335E-04  6.37279280452912231E-04
  6.61512680473069444E-04  6.86664474747944215E-04  7.12769267666917743E-04
  7.39862954517781315E-04  7.67982768803001140E-04  7.97167331235562843E-04
  8.27456700470404838E-04  8.58892425629074726E-04  8.91517600676893949E-04
  9.25376920713609301E-04  9.60516740240190017E-04  9.96985133466210885E-04
  1.03483195672398275E-03  1.07410891305739753E-03  1.11486961905526332E-03
  1.15716967400072372E-03  1.20106673141020582E-03  1.24662057303717017E-03
  1.29389318541789150E-03  1.34294883903833149E-03  1.39385417020300873E-03
  1.44667826568871199E-03  1.50149275026777683E-03  1.55837187718754289E-03
  1.61739262169443860E-03  1.67863477769304562E-03  1.74218105763225702E-03
  1.80811719571251557E-03  1.87653205450980009E-03  1.94751773511381353E-03
  2.02116969087945192E-03  2.09758684489222023E-03  2.17687171124984237E-03
  2.25913052026370260E-03  2.34447334768512041E-03  2.43301424806274206E-03
  2.52487139233838762E-03  2.62016720978975421E-03  2.71902853442913513E-03
  2.82158675596806902E-03  2.92797797545824847E-03  3.03834316571933733E-03
  3.15282833666437941E-03  3.27158470563332577E-03  3.39476887284468221E-03
  3.52254300207459001E-03  3.65507500667151949E-03  3.79253874101332386E-03
  3.93511419751152534E-03  4.08298770926534063E-03  4.23635215846625106E-03
  4.39540719064929544E-03  4.56035943488416681E-03  4.73142272999512066E-03
  4.90881835689349101E-03  5.09277527710124724E-03  5.28353037753753925E-03
  5.48132872163325808E-03  5.68642380683061568E-03  5.89907782851601184E-03
  6.11956195042469720E-03  6.34815658154481467E-03  6.58515165953678112E-03
  6.83084694067048921E-03  7.08555229626884730E-03  7.34958801563019137E-03
  7.62328511538511860E-03  7.90698565522440604E-03  8.20104305991462522E-03
  8.50582244749560797E-03  8.82170096353024867E-03  9.14906812125091361E-03
  9.48832614741891046E-03  9.83989033368281793E-03  1.02041893931889803E-02
  1.05816658221621444E-02  1.09727762661361358E-02  1.13779918904733206E-02
  1.17977987547666346E-02  1.22326981906777273E-02  1.26832071827050058E-02
  1.31498587513252177E-02  1.36332023378948550E-02  1.41338041906354552E-02
  1.46522477509608527E-02  1.51891340393335971E-02  1.57450820397628775E-02
  1.63207290819758974E-02  1.69167312202094279E-02  1.75337636074775170E-02
  1.81725208640746740E-02  1.88337174389715811E-02  1.95180879626512781E-02
  2.02263875898186091E-02  2.09593923302934908E-02  2.17178993662686982E-02
  2.25027273539766190E-02  2.33147167076639510E-02  2.41547298636206539E-02
  2.50236515218483987E-02  2.59223888627830440E-02  2.68518717363068725E-02
  2.78130528200975710E-02  2.88069077441620788E-02  2.98344351781959435E-02
  3.08966568781841484E-02  3.19946176884345485E-02  3.31293854950206329E-02
  3.43020511263085054E-02  3.55137281960098347E-02  3.67655528839268969E-02
  3.80586836492675940E-02  3.93943008711104617E-02  4.07736064102907636E-02
  4.21978230866567813E-02  4.36681940653136647E-02  4.51859821451259455E-02
  4.67524689423947995E-02  4.83689539622588899E-02  5.00367535499887522E-02
  5.17571997139572790E-02  5.35316388116711048E-02  5.53614300898397985E-02
  5.72479440690473115E-02  5.91925607631665213E-02  6.11966677232334208E-02
  6.32616578950644798E-02  6.53889272794697801E-02  6.75798723834800247E-02
  6.98358874505755484E-02  7.21583614574786425E-02  7.45486748646516928E-02
  7.70081961072129340E-02  7.95382778126172002E-02  8.21402527311636405E-02
  8.48154293648348406E-02  8.75650872797826135E-02  9.03904720874695033E-02
  9.32927900792186737E-02  9.62732024987194707E-02  9.93328194368893469E-02
  1.02472693333403364E-01  1.05693812069188695E-01  1.08997091634246077E-01
  1.12383368355315080E-01  1.15853390668161596E-01  1.19407810419637994E-01
  1.23047173685170111E-01  1.26771911087970812E-01  1.30582327607084298E-01
  1.34478591862344565E-01  1.38460724865503787E-01  1.42528588228171854E-01
  1.46681871818825471E-01  1.50920080863016365E-01  1.55242522483059475E-01
  1.59648291675929449E-01  1.64136256730877145E-01  1.68705044091389644E-01
  1.73353022669582607E-01  1.78078287625367926E-01  1.82878643626685627E-01
  1.87751587612057402E-01  1.92694291082176117E-01  1.97703581953103058E-01
  2.02775926010108021E-01  2.07907408008288497E-01  2.13093712473834213E-01
  2.18330104268229463E-01  2.23611408986828575E-01  2.28931993273127299E-01
  2.34285745140739937E-01  2.39666054406591500E-01  2.45065793351167821E-01
  2.50477297734902127E-01  2.55892348313865647E-01  2.61302153012970828E-01
  2.66697329930824345E-01  2.72067891367237802E-01  2.77403229082197833E-01
  2.82692101013779062E-01  2.87922619702065674E-01  2.93082242686558525E-01
  2.98157765165740551E-01  3.03135315229447533E-01  3.08000351997524902E-01
  3.12737667020171251E-01  3.17331389319860380E-01  3.21764994478365873E-01
  3.26021318195680143E-01  3.30082574771199455E-01  3.33930380980542452E-01
  3.37545785843570034E-01  3.40909306800259715E-01  3.44000972830662055E-01
  3.46800375072762845E-01  3.49286725507230278E-01  3.51438924290134180E-01
  3.53235636323218249E-01  3.54655377655449633E-01  3.55676612308642004E-01
  3.56277860113108968E-01  3.56437816125660334E-01  3.56135482180814478E-01
  3.55350311095849969E-01  3.54062364010088559E-01  3.52252481287430752E-01
  3.49902467347360913E-01  3.46995289712077160E-01  3.43515292464689481E-01
  3.39448424205350596E-01  3.34782480464811072E-01  3.29507360377761183E-01
  3.23615337267459946E-01  3.17101342593492597E-01  3.09963262499928782E-01
  3.02202245962210014E-01  2.93823023264711713E-01  2.84834233246923418E-01
  2.75248757433757818E-01  2.65084058814055501E-01  2.54362522650674439E-01
  2.43111796295821636E-01  2.31365124547217277E-01  2.19161676615467482E-01
  2.06546860282737804E-01  1.93572618320052764E-01  1.80297701699100060E-01
  1.66787913588822778E-01  1.53116317573251504E-01  1.39363402972029260E-01
  1.25617199597408163E-01  1.11973333751282073E-01  9.85350167647473241E-02
  8.54129569243343156E-02  7.27251852288299250E-02  6.05967850922397092E-02
  4.91595158846097405E-02  3.85513200967213601E-02  2.89157039284740382E-02
  2.04009812819810621E-02  1.31593711880943938E-02  7.34593374920291999E-03
  3.11724212070856044E-03  6.28309239122405217E-04 -1.19093269403459769E-05
 -8.54035688569626975E-07 -6.03545734364367433E-08 -4.20404207408563841E-09
 -2.88541819200807880E-10 -1.94972450078027494E-11 -1.29519785299649806E-12
 -8.43981177192921615E-14 -5.37669713116454300E-15 -3.33189167125760687E-16
 -1.99253653300567808E-17 -1.13462116602854668E-18 -5.99961611577902140E-20
 -2.78404325997745876E-21 -9.43480340540064144E-23  3.28882135046286075E-25
  4.87321420913828729E-25  6.48104287820625517E-26  6.54657761019737895E-27
  5.88329443249086388E-28  4.94831554578062274E-29  3.98431709524771540E-30
  3.10820169214283571E-31  2.36569094578926015E-32  1.76431225349965272E-33
  1.29284710932653705E-34  9.32416372686095475E-36  0.00000000000000000E+00
  0.00000000000000000E+00  0.00000000000000000E+00  0.00000000000000000E+00
  0.00000000000000000E+00  0.00000000000000000E+00  0.00000000000000000E+00
  0.00000000000000000E+00  0.00000000000000000E+00  0.00000000000000000E+00
  0.00000000000000000E+00  0.00000000000000000E+00  0.00000000000000000E+00
  0.00000000000000000E+00  0.00000000000000000E+00  0.00000000000000000E+00
  0.00000000000000000E+00  0.00000000000000000E+00  0.00000000000000000E+00
  0.00000000000000000E+00  0.00000000000000000E+00  0.00000000000000000E+00
  0.00000000000000000E+00  0.00000000000000000E+00  0.00000000000000000E+00
  0.00000000000000000E+00  0.00000000000000000E+00  0.00000000000000000E+00
  0.00000000000000000E+00  0.00000000000000000E+00  0.00000000000000000E+00
  0.00000000000000000E+00  0.00000000000000000E+00  0.00000000000000000E+00
  0.00000000000000000E+00  0.00000000000000000E+00  0.00000000000000000E+00
  0.00000000000000000E+00  0.00000000000000000E+00  0.00000000000000000E+00
  0.00000000000000000E+00  0.00000000000000000E+00  0.00000000000000000E+00
  0.00000000000000000E+00  0.00000000000000000E+00  0.00000000000000000E+00
  0.00000000000000000E+00  0.00000000000000000E+00  0.00000000000000000E+00
  0.00000000000000000E+00  0.00000000000000000E+00  0.00000000000000000E+00
  0.00000000000000000E+00  0.00000000000000000E+00  0.00000000000000000E+00
  0.00000000000000000E+00  0.00000000000000000E+00  0.00000000000000000E+00
  0.00000000000000000E+00  0.00000000000000000E+00  0.00000000000000000E+00
  0.00000000000000000E+00  0.00000000000000000E+00  0.00000000000000000E+00
  0.00000000000000000E+00  0.00000000000000000E+00  0.00000000000000000E+00
  0.00000000000000000E+00  0.00000000000000000E+00  0.00000000000000000E+00
  0.00000000000000000E+00  0.00000000000000000E+00  0.00000000000000000E+00
  0.00000000000000000E+00  0.00000000000000000E+00  0.00000000000000000E+00
  0.00000000000000000E+00  0.00000000000000000E+00  0.00000000000000000E+00
  0.00000000000000000E+00  0.00000000000000000E+00  0.00000000000000000E+00
  0.00000000000000000E+00  0.00000000000000000E+00  0.00000000000000000E+00
  0.00000000000000000E+00  0.00000000000000000E+00  0.00000000000000000E+00
  0.00000000000000000E+00  0.00000000000000000E+00  0.00000000000000000E+00
  0.00000000000000000E+00  0.00000000000000000E+00  0.00000000000000000E+00
  0.00000000000000000E+00  0.00000000000000000E+00  0.00000000000000000E+00
  0.00000000000000000E+00  0.00000000000000000E+00  0.00000000000000000E+00
  0.00000000000000000E+00  0.00000000000000000E+00  0.00000000000000000E+00
  0.00000000000000000E+00  0.00000000000000000E+00  0.00000000000000000E+00
  0.00000000000000000E+00  0.00000000000000000E+00  0.00000000000000000E+00
  0.00000000000000000E+00  0.00000000000000000E+00  0.00000000000000000E+00
  0.00000000000000000E+00  0.00000000000000000E+00  0.00000000000000000E+00
  0.00000000000000000E+00  0.00000000000000000E+00  0.00000000000000000E+00
  0.00000000000000000E+00  0.00000000000000000E+00  0.00000000000000000E+00
  0.00000000000000000E+00  0.00000000000000000E+00  0.00000000000000000E+00
  0.00000000000000000E+00  0.00000000000000000E+00  0.00000000000000000E+00
  0.00000000000000000E+00  0.00000000000000000E+00  0.00000000000000000E+00
  0.00000000000000000E+00  0.00000000000000000E+00  0.00000000000000000E+00
  0.00000000000000000E+00  0.00000000000000000E+00  0.00000000000000000E+00
  0.00000000000000000E+00  0.00000000000000000E+00  0.00000000000000000E+00
  0.00000000000000000E+00  0.00000000000000000E+00  0.00000000000000000E+00
  0.00000000000000000E+00  0.00000000000000000E+00  0.00000000000000000E+00
  0.00000000000000000E+00  0.00000000000000000E+00  0.00000000000000000E+00
  0.00000000000000000E+00  0.00000000000000000E+00  0.00000000000000000E+00
  0.00000000000000000E+00  0.00000000000000000E+00  0.00000000000000000E+00
  0.00000000000000000E+00  0.00000000000000000E+00  0.00000000000000000E+00
  0.00000000000000000E+00  0.00000000000000000E+00  0.00000000000000000E+00
  0.00000000000000000E+00  0.00000000000000000E+00  0.00000000000000000E+00
                       </PP_QIJL.1.4.1>
 <PP_QIJL.2.2.0 type="real" size="   999" columns="3" first_index=" 2" second_index=" 2" composite_index=" 3" angular_momentum="0">
 -5.11702031820687753E-09 -5.24655830356543175E-09 -5.37937555859878020E-09
 -5.51555509841205726E-09 -5.65518203964771153E-09 -5.79834365368614633E-09
 -5.94512942119318242E-09 -6.09563108804834476E-09 -6.24994272268902701E-09
 -6.40816077490638690E-09 -6.57038413612949582E-09 -6.73671420123571694E-09
 -6.90725493192583440E-09 -7.08211292170346292E-09 -7.26139746249945322E-09
 -7.44522061298286508E-09 -7.63369726860133090E-09 -7.82694523339436686E-09
 -8.02508529362473517E-09 -8.22824129327387361E-09 -8.43654021144824458E-09
 -8.65011224174547359E-09 -8.86909087362959364E-09 -9.09361297586622406E-09
 -9.32381888207004444E-09 -9.55985247841782074E-09 -9.80186129358192166E-09
 -1.00499965909405157E-08 -1.03044134631221230E-08 -1.05652709289435188E-08
 -1.08327320328015849E-08 -1.11069639465814535E-08 -1.13881380741442053E-08
 -1.16764301584599356E-08 -1.19720203914528365E-08 -1.22750935266268189E-08
 -1.25858389945425991E-08 -1.29044510212178320E-08 -1.32311287495246507E-08
 -1.35660763636605661E-08 -1.39095032167699096E-08 -1.42616239617965756E-08
 -1.46226586856489177E-08 -1.49928330467611722E-08 -1.53723784161374650E-08
 -1.57615320219658429E-08 -1.61605370978938439E-08 -1.65696430350572089E-08
 -1.69891055379574618E-08 -1.74191867842855721E-08 -1.78601555887912485E-08
 -1.83122875713010724E-08 -1.87758653289895940E-08 -1.92511786130118212E-08
 -1.97385245096069993E-08 -2.02382076257870601E-08 -2.07505402797257956E-08
 -2.12758426959679040E-08 -2.18144432055795003E-08 -2.23666784513658128E-08
 -2.29328935982835408E-08 -2.35134425491801927E-08 -2.41086881659947879E-08
 -2.47190024965581216E-08 -2.53447670071348809E-08 -2.59863728208519874E-08
 -2.66442209621633835E-08 -2.73187226075030929E-08 -2.80102993422836946E-08
 -2.87193834244009252E-08 -2.94464180544084718E-08 -3.01918576525327427E-08
 -3.09561681426999880E-08 -3.17398272437537412E-08 -3.25433247680444776E-08
 -3.33671629275779213E-08 -3.42118566479136226E-08 -3.50779338900100887E-08
 -3.59659359802170678E-08 -3.68764179486221310E-08 -3.78099488759619041E-08
 -3.87671122493158844E-08 -3.97485063268046030E-08 -4.07547445115197436E-08
 -4.17864557349211591E-08 -4.28442848499386285E-08 -4.39288930340256756E-08
 -4.50409582024166803E-08 -4.61811754318452175E-08 -4.73502573949895849E-08
 -4.85489348059154590E-08 -4.97779568767955774E-08 -5.10380917861913079E-08
 -5.23301271591883978E-08 -5.36548705596880425E-08 -5.50131499951595301E-08
 -5.64058144341713367E-08 -5.78337343370233535E-08 -5.92978021998121961E-08
 -6.07989331122697396E-08 -6.23380653297224471E-08 -6.39161608595312487E-08
 -6.55342060623762896E-08 -6.71932122687631568E-08 -6.88942164111371639E-08
 -7.06382816719978773E-08 -7.24264981484220458E-08 -7.42599835334084726E-08
 -7.61398838144712716E-08 -7.80673739899183759E-08 -8.00436588032615557E-08
 -8.20699734962193639E-08 -8.41475845807818317E-08 -8.62777906308199186E-08
 -8.84619230937350749E-08 -9.07013471226548052E-08 -9.29974624296962843E-08
 -9.53517041608299349E-08 -9.77655437928903763E-08 -1.00240490053295121E-07
 -1.02778089863045682E-07 -1.05379929303601531E-07 -1.08047634608229595E-07
 -1.10782873178450793E-07 -1.13587354626217516E-07 -1.16462831842472930E-07
 -1.19411102092762425E-07 -1.22434008140579675E-07 -1.25533439399150162E-07
 -1.28711333112372960E-07 -1.31969675565656274E-07 -1.35310503327407149E-07
 -1.38735904521948877E-07 -1.42248020134661838E-07 -1.45849045350164429E-07
 -1.49541230924370909E-07 -1.53326884591280226E-07 -1.57208372505380845E-07
 -1.61188120720568002E-07 -1.65268616706500287E-07 -1.69452410903343730E-07
 -1.73742118315871926E-07 -1.78140420147923075E-07 -1.82650065478231952E-07
 -1.87273872978685874E-07 -1.92014732676079196E-07 -1.96875607758463741E-07
 -2.01859536427230680E-07 -2.06969633796074650E-07 -2.12209093838031513E-07
 -2.17581191381806347E-07 -2.23089284158634942E-07 -2.28736814900965102E-07
 -2.34527313494263779E-07 -2.40464399183297394E-07 -2.46551782834266043E-07
 -2.52793269254198904E-07 -2.59192759569069645E-07 -2.65754253662110756E-07
 -2.72481852673854213E-07 -2.79379761565462875E-07 -2.86452291746946502E-07
 -2.93703863771916663E-07 -3.01139010100556381E-07 -3.08762377932532996E-07
 -3.16578732111630577E-07 -3.24592958103904903E-07 -3.32810065051236968E-07
 -3.41235188902183122E-07 -3.49873595622083986E-07 -3.58730684484436330E-07
 -3.67811991445582931E-07 -3.77123192604835486E-07 -3.86670107752188787E-07
 -3.96458704005842782E-07 -4.06495099541813204E-07 -4.16785567417947631E-07
 -4.27336539494753750E-07 -4.38154610455477657E-07 -4.49246541927951992E-07
 -4.60619266710788004E-07 -4.72279893106548672E-07 -4.84235709364618672E-07
 -4.96494188236544557E-07 -5.09062991646687028E-07 -5.21949975481119320E-07
 -5.35163194497742263E-07 -5.48710907360707395E-07 -5.62601581802280742E-07
 -5.76843899915375937E-07 -5.91446763580072914E-07 -6.06419300027496226E-07
 -6.21770867544549339E-07 -6.37511061323057340E-07 -6.53649719456982130E-07
 -6.70196929091454713E-07 -6.87163032727458054E-07 -7.04558634686124082E-07
 -7.22394607736662524E-07 -7.40682099892073530E-07 -7.59432541376896916E-07
 -7.78657651771333257E-07 -7.98369447336230126E-07 -8.18580248523482152E-07
 -8.39302687676564242E-07 -8.60549716925997371E-07 -8.82334616284669671E-07
 -9.04671001948106469E-07 -9.27572834804843239E-07 -9.51054429162232705E-07
 -9.75130461693154433E-07 -9.99815980609178781E-07 -1.02512641506596644E-06
 -1.05107758480675080E-06 -1.07768571004992784E-06 -1.10496742162696711E-06
 -1.13293977137692452E-06 -1.16162024280410762E-06 -1.19102676200552477E-06
 -1.22117770887494150E-06 -1.25209192859058376E-06 -1.28378874339360777E-06
 -1.31628796466475671E-06 -1.34960990530671910E-06 -1.38377539243992486E-06
 -1.41880578041974747E-06 -1.45472296418318241E-06 -1.49154939293342528E-06
 -1.52930808417082538E-06 -1.56802263807903921E-06 -1.60771725227535367E-06
 -1.64841673693436470E-06 -1.69014653029453193E-06 -1.73293271455723846E-06
 -1.77680203218832088E-06 -1.82178190263225977E-06 -1.86790043944944092E-06
 -1.91518646788724926E-06 -1.96366954289593871E-06 -2.01337996760053400E-06
 -2.06434881224035652E-06 -2.11660793358792310E-06 -2.17018999485944019E-06
 -2.22512848612928971E-06 -2.28145774526127072E-06 -2.33921297936967032E-06
 -2.39843028682359739E-06 -2.45914667980830821E-06 -2.52140010745761059E-06
 -2.58522947957186851E-06 -2.65067469093631591E-06 -2.71777664625499189E-06
 -2.78657728571579388E-06 -2.85711961120265710E-06 -2.92944771317126798E-06
 -3.00360679820501143E-06 -3.07964321726850869E-06 -3.15760449467625380E-06
 -3.23753935779455954E-06 -3.31949776749534295E-06 -3.40353094938070535E-06
 -3.48969142579796511E-06 -3.57803304866498557E-06 -3.66861103312641672E-06
 -3.76148199206187471E-06 -3.85670397146751810E-06 -3.95433648673327218E-06
 -4.05444055983826356E-06 -4.15707875748771850E-06 -4.26231523021522029E-06
 -4.37021575247466759E-06 -4.48084776374702047E-06 -4.59428041068752995E-06
 -4.71058459033977928E-06 -4.82983299444349030E-06 -4.95210015486382867E-06
 -5.07746249017060787E-06 -5.20599835339636236E-06 -5.33778808100329519E-06
 -5.47291404308963721E-06 -5.61146069486661922E-06 -5.75351462943851115E-06
 -5.89916463191845510E-06 -6.04850173491398108E-06 -6.20161927541690431E-06
 -6.35861295313307424E-06 -6.51958089028848178E-06 -6.68462369294893471E-06
 -6.85384451389185659E-06 -7.02734911706926508E-06 -7.20524594370219324E-06
 -7.38764618004801790E-06 -7.57466382688285095E-06 -7.76641577074248040E-06
 -7.96302185696626587E-06 -8.16460496458970809E-06 -8.37129108313247993E-06
 -8.58320939132970346E-06 -8.80049233785580599E-06 -9.02327572409139750E-06
 -9.25169878898465899E-06 -9.48590429606047774E-06 -9.72603862263138032E-06
 -9.97225185126628614E-06 -1.02246978635740191E-05 -1.04835344363600937E-05
 -1.07489233402169337E-05 -1.10210304406089840E-05 -1.13000258015159855E-05
 -1.15860837916989505E-05 -1.18793831936552203E-05 -1.21801073153306876E-05
 -1.24884441046589159E-05 -1.28045862669986350E-05 -1.31287313855429837E-05
 -1.34610820447754403E-05 -1.38018459570498863E-05 -1.41512360923734181E-05
 -1.45094708114733032E-05 -1.48767740022308257E-05 -1.52533752195672219E-05
 -1.56395098288691791E-05 -1.60354191530432353E-05 -1.64413506232910049E-05
 -1.68575579336992189E-05 -1.72843011997409764E-05 -1.77218471207872461E-05
 -1.81704691467300336E-05 -1.86304476488209888E-05 -1.91020700948324256E-05
 -1.95856312286494214E-05 -2.00814332544057434E-05 -2.05897860252778643E-05
 -2.11110072370551375E-05 -2.16454226266070541E-05 -2.21933661753708537E-05
 -2.27551803179868755E-05 -2.33312161562116541E-05 -2.39218336782417870E-05
 -2.45274019835860436E-05 -2.51482995136252362E-05 -2.57849142880041610E-05
 -2.64376441470027267E-05 -2.71068970000372201E-05 -2.77930910804471933E-05
 -2.84966552067259002E-05 -2.92180290503580838E-05 -2.99576634104314493E-05
 -3.07160204951929743E-05 -3.14935742107260848E-05 -3.22908104569276543E-05
 -3.31082274309700618E-05 -3.39463359384372480E-05 -3.48056597123278262E-05
 -3.56867357401253148E-05 -3.65901145991378036E-05 -3.75163608003171314E-05
 -3.84660531407709862E-05 -3.94397850651874663E-05 -4.04381650363976150E-05
 -4.14618169153059242E-05 -4.25113803504261221E-05 -4.35875111772642354E-05
 -4.46908818277973345E-05 -4.58221817503035308E-05 -4.69821178398035399E-05
 -4.81714148793825883E-05 -4.93908159926665974E-05 -5.06410831077339771E-05
 -5.19229974327524896E-05 -5.32373599436357275E-05 -5.45849918840234270E-05
 -5.59667352778964292E-05 -5.73834534551439268E-05 -5.88360315904112600E-05
 -6.03253772555617737E-05 -6.18524209860967487E-05 -6.34181168618856012E-05
 -6.50234431025659143E-05 -6.66694026779847691E-05 -6.83570239340589139E-05
 -7.00873612344434080E-05 -7.18614956184070142E-05 -7.36805354753216349E-05
 -7.55456172361864472E-05 -7.74579060826132635E-05 -7.94185966737151743E-05
 -8.14289138913482655E-05 -8.34901136041682566E-05 -8.56034834509770867E-05
 -8.77703436438431533E-05 -8.99920477914950334E-05 -9.22699837434973685E-05
 -9.46055744557319859E-05 -9.70002788777216016E-05 -9.94555928623433677E-05
 -1.01973050098497488E-04 -1.04554223067307669E-04 -1.07200724022442671E-04
 -1.09914205995170064E-04 -1.12696363824758982E-04 -1.15548935214871527E-04
 -1.18473701816595956E-04 -1.21472490338789027E-04 -1.24547173686415075E-04
 -1.27699672127583975E-04 -1.30931954490008879E-04 -1.34246039387621774E-04
 -1.37643996478103466E-04 -1.41127947752104613E-04 -1.44700068854951194E-04
 -1.48362590441649973E-04 -1.52117799566028926E-04 -1.55968041104866887E-04
 -1.59915719217891002E-04 -1.63963298844539029E-04 -1.68113307238407521E-04
 -1.72368335540330466E-04 -1.76731040391053037E-04 -1.81204145584494623E-04
 -1.85790443762612155E-04 -1.90492798152908788E-04 -1.95314144349649293E-04
 -2.00257492139878970E-04 -2.05325927375361606E-04 -2.10522613891585937E-04
 -2.15850795475013891E-04 -2.21313797879775840E-04 -2.26915030895046590E-04
 -2.32657990464364082E-04 -2.38546260858187823E-04 -2.44583516901023001E-04
 -2.50773526254468855E-04 -2.57120151757584423E-04 -2.63627353825997800E-04
 -2.70299192911220576E-04 -2.77139832021664324E-04 -2.84153539306890909E-04
 -2.91344690706672271E-04 -2.98717772666462706E-04 -3.06277384920936740E-04
 -3.14028243347277980E-04 -3.21975182889948364E-04 -3.30123160558712684E-04
 -3.38477258501726377E-04 -3.47042687155548705E-04 -3.55824788473982909E-04
 -3.64829039237691383E-04 -3.74061054446582790E-04 -3.83526590797012902E-04
 -3.93231550245891402E-04 -4.03181983663842452E-04 -4.13384094579604007E-04
 -4.23844243017922127E-04 -4.34568949433233995E-04 -4.45564898741496391E-04
 -4.56838944452572023E-04 -4.68398112905639777E-04 -4.80249607610158560E-04
 -4.92400813694969194E-04 -5.04859302468180790E-04 -5.17632836090557756E-04
 -5.30729372365172625E-04 -5.44157069646173568E-04 -5.57924291869564006E-04
 -5.72039613708973387E-04 -5.86511825859458900E-04 -6.01349940452452396E-04
 -6.16563196605044621E-04 -6.32161066106854590E-04 -6.48153259247833432E-04
 -6.64549730790402323E-04 -6.81360686089426478E-04 -6.98596587363585942E-04
 -7.16268160121804969E-04 -7.34386399748464323E-04 -7.52962578251230460E-04
 -7.72008251175395179E-04 -7.91535264688732090E-04 -8.11555762840947465E-04
 -8.32082195001905079E-04 -8.53127323482894299E-04 -8.74704231345309899E-04
 -8.96826330401196401E-04 -9.19507369410230992E-04 -9.42761442477790270E-04
 -9.66602997658876735E-04 -9.91046845772761489E-04 -1.01610816943332430E-03
 -1.04180253230016107E-03 -1.06814588855565391E-03 -1.09515459261330336E-03
 -1.12284540906273174E-03 -1.15123552285688324E-03 -1.18034254974707081E-03
 -1.21018454697162272E-03 -1.24078002420401588E-03 -1.27214795476648999E-03
 -1.30430778711527725E-03 -1.33727945660369108E-03 -1.37108339752944701E-03
 -1.40574055547273025E-03 -1.44127239993162987E-03 -1.47770093726171505E-03
 -1.51504872392664558E-03 -1.55333888006683996E-03 -1.59259510339338568E-03
 -1.63284168341446207E-03 -1.67410351600175426E-03 -1.71640611830439684E-03
 -1.75977564401819087E-03 -1.80423889901794266E-03 -1.84982335736091517E-03
 -1.89655717766955322E-03 -1.94446921990174058E-03 -1.99358906251702371E-03
 -2.04394702004738514E-03 -2.09557416108125446E-03 -2.14850232666961762E-03
 -2.20276414916324064E-03 -2.25839307149010553E-03 -2.31542336688239430E-03
 -2.37389015906237918E-03 -2.43382944289683052E-03 -2.49527810552961421E-03
 -2.55827394800230666E-03 -2.62285570737281733E-03 -2.68906307934208954E-03
 -2.75693674139913456E-03 -2.82651837649472177E-03 -2.89785069725422917E-03
 -2.97097747074021338E-03 -3.04594354377544585E-03 -3.12279486883718788E-03
 -3.20157853053365353E-03 -3.28234277267366913E-03 -3.36513702594061015E-03
 -3.45001193618185709E-03 -3.53701939332499125E-03 -3.62621256093207571E-03
 -3.71764590640344091E-03 -3.81137523184236658E-03 -3.90745770559220492E-03
 -4.00595189445737080E-03 -4.10691779661979950E-03 -4.21041687526233031E-03
 -4.31651209291055056E-03 -4.42526794650457533E-03 -4.53675050321220626E-03
 -4.65102743699476965E-03 -4.76816806593701077E-03 -4.88824339035215036E-03
 -5.01132613167318622E-03 -5.13749077214133241E-03 -5.26681359530233820E-03
 -5.39937272732119496E-03 -5.53524817912555596E-03 -5.67452188938787766E-03
 -5.81727776835605937E-03 -5.96360174254199384E-03 -6.11358180027707886E-03
 -6.26730803814334967E-03 -6.42487270828849804E-03 -6.58637026663243686E-03
 -6.75189742197266057E-03 -6.92155318599502016E-03 -7.09543892419589421E-03
 -7.27365840772105799E-03 -7.45631786612582954E-03 -7.64352604106021370E-03
 -7.83539424088197656E-03 -8.03203639619952739E-03 -8.23356911634558208E-03
 -8.44011174678150310E-03 -8.65178642743080935E-03 -8.86871815193949857E-03
 -9.09103482785908815E-03 -9.31886733774706794E-03 -9.55234960117782618E-03
 -9.79161863765555529E-03 -1.00368146304186910E-02 -1.02880809911237488E-02
 -1.05455644253944474E-02 -1.08094149992196808E-02 -1.10797862061818072E-02
 -1.13568350354941901E-02 -1.16407220408244368E-02 -1.19316114098770472E-02
 -1.22296710347062441E-02 -1.25350725827268177E-02 -1.28479915683872847E-02
 -1.31686074254666590E-02 -1.34971035799519145E-02 -1.38336675234499076E-02
 -1.41784908870830461E-02 -1.45317695158137510E-02 -1.48937035431383723E-02
 -1.52644974660860813E-02 -1.56443602204533183E-02 -1.60335052561990619E-02
 -1.64321506129202384E-02 -1.68405189953208523E-02 -1.72588378485818393E-02
 -1.76873394335322169E-02 -1.81262609015148297E-02 -1.85758443688327536E-02
 -1.90363369906544136E-02 -1.95079910342477042E-02 -1.99910639514039971E-02
 -2.04858184499046928E-02 -2.09925225638728091E-02 -2.15114497228422602E-02
 -2.20428788193669546E-02 -2.25870942749804952E-02 -2.31443861043067432E-02
 -2.37150499771078306E-02 -2.42993872780439199E-02 -2.48977051639061031E-02
 -2.55103166180690420E-02 -2.61375405018959596E-02 -2.67797016028124592E-02
 -2.74371306787500602E-02 -2.81101644986430400E-02 -2.87991458786448530E-02
 -2.95044237137115743E-02 -3.02263530041806464E-02 -3.09652948769532574E-02
 -3.17216166008670725E-02 -3.24956915958246190E-02 -3.32878994352192176E-02
 -3.40986258411769064E-02 -3.49282626721070869E-02 -3.57772079020297132E-02
 -3.66458655911187162E-02 -3.75346458468739722E-02 -3.84439647753041583E-02
 -3.93742444214734214E-02 -4.03259126987316335E-02 -4.12994033059165891E-02
 -4.22951556317816904E-02 -4.33136146458671864E-02 -4.43552307749966318E-02
 -4.54204597645410518E-02 -4.65097625235591644E-02 -4.76236049528740296E-02
 -4.87624577551088317E-02 -4.99267962256600001E-02 -5.11171000235416048E-02
 -5.23338529209890491E-02 -5.35775425306620687E-02 -5.48486600092388046E-02
 -5.61476997361421357E-02 -5.74751589660882911E-02 -5.88315374540953895E-02
 -6.02173370515345918E-02 -6.16330612717527898E-02 -6.30792148237381695E-02
 -6.45563031122434738E-02 -6.60648317027233006E-02 -6.76053057493821302E-02
 -6.91782293845703833E-02 -7.07841050677049111E-02 -7.24234328918286485E-02
 -7.40967098458635842E-02 -7.58044290305485563E-02 -7.75470788259925992E-02
 -7.93251420087122544E-02 -8.11390948159607384E-02 -8.29894059550974200E-02
 -8.48765355556836687E-02 -8.68009340619374098E-02 -8.87630410631291833E-02
 -9.07632840594330137E-02 -9.28020771607044742E-02 -9.48798197156100059E-02
 -9.69968948684873794E-02 -9.91536680412763577E-02 -1.01350485337825258E-01
 -1.03587671867848202E-01 -1.05865529987788407E-01 -1.08184337455823204E-01
 -1.10544345498242699E-01 -1.12945776784434487E-01 -1.15388823307718186E-01
 -1.17873644169297076E-01 -1.20400363262630969E-01 -1.22969066855580678E-01
 -1.25579801067741886E-01 -1.28232569240465111E-01 -1.30927329197158243E-01
 -1.33663990391586329E-01 -1.36442410942025028E-01 -1.39262394549286017E-01
 -1.42123687296824064E-01 -1.45025974331351698E-01 -1.47968876422635343E-01
 -1.50951946401424536E-01 -1.53974665474785444E-01 -1.57036439418459822E-01
 -1.60136594646257541E-01 -1.63274374156934077E-01 -1.66448933359486906E-01
 -1.69659335778336723E-01 -1.72904548640446271E-01 -1.76183438347074395E-01
 -1.79494765833564024E-01 -1.82837181821335765E-01 -1.86209221967093969E-01
 -1.89609301915161482E-01 -1.93035712259849557E-01 -1.96486613425834233E-01
 -1.99960030475667766E-01 -2.03453847854793812E-01 -2.06965804085778721E-01
 -2.10493486424905202E-01 -2.14034325495817912E-01 -2.17585589916560268E-01
 -2.21144380938103624E-01 -2.24707627114348579E-01 -2.28272079025579527E-01
 -2.31834304079473530E-01 -2.35390681416023595E-01 -2.38937396945120173E-01
 -2.42470438548115785E-01 -2.45985591477106774E-01 -2.49478433988713388E-01
 -2.52944333252025477E-01 -2.56378441573362703E-01 -2.59775692983738871E-01
 -2.63130800238237650E-01 -2.66438252279976640E-01 -2.69692312224909747E-01
 -2.72887015927420651E-01 -2.76016171190459014E-01 -2.79073357687866841E-01
 -2.82051927670517899E-01 -2.84945007531935746E-01 -2.87745500313124625E-01
 -2.90446089230464333E-01 -2.93039242314593162E-01 -2.95517218252271674E-01
 -2.97872073527189918E-01 -3.00095670959544314E-01 -3.02179689747921310E-01
 -3.04115637120510651E-01 -3.05894861705901411E-01 -3.07508568736611143E-01
 -3.08947837200988007E-01 -3.10203639061222114E-01 -3.11266860656996491E-01
 -3.12128326413486479E-01 -3.12778824974323910E-01 -3.13209137878974309E-01
 -3.13410070901622373E-01 -3.13372488165974850E-01 -3.13087349146229099E-01
 -3.12545748658886902E-01 -3.11738959942971738E-01 -3.10658480917368196E-01
 -3.09296083693265500E-01 -3.07643867406873328E-01 -3.05694314422488567E-01
 -3.03440349938440324E-01 -3.00875405008201702E-01 -2.97993482965846657E-01
 -2.94789229218805182E-01 -2.91258004341351406E-01 -2.87395960369197845E-01
 -2.83200120158789648E-01 -2.78668459634175525E-01 -2.73799992699497730E-01
 -2.68594858546020665E-01 -2.63054411029060020E-01 -2.57181309732056884E-01
 -2.50979612272677066E-01 -2.44454867338172399E-01 -2.37614207862054588E-01
 -2.30466443683324529E-01 -2.23022152944769597E-01 -2.15293771401540018E-01
 -2.07295678722144411E-01 -1.99044280771106669E-01 -1.90558086766630330E-01
 -1.81857780108418771E-01 -1.72966281571120567E-01 -1.63908803458683389E-01
 -1.54712893215388669E-01 -1.45408464891877226E-01 -1.36027816770596471E-01
 -1.26605633366697085E-01 -1.17178969939422561E-01 -1.07787217577894265E-01
 -9.84720468663753956E-02 -8.92773280905218153E-02 -8.02490259209095308E-02
 -7.14350665066731533E-02 -6.28851749341394622E-02 -5.46506810568238507E-02
 -4.67842917883088474E-02 -3.93398280726482835E-02 -3.23719249086300495E-02
 -2.59356930287879713E-02 -2.00863410975842885E-02 -1.48787576024195199E-02
 -1.03670519986094039E-02 -6.60405495456727054E-03 -3.64077540450425622E-03
 -1.52577039148885226E-03 -3.03723928978876401E-04  5.69958949644893216E-06
  4.08726107238984358E-07  2.88846124171461297E-08  2.01197886061156296E-09
  1.38090920691057625E-10  9.33103049507309938E-12  6.19858377869638802E-13
  4.03914199083163534E-14  2.57319046222122427E-15  1.59458337720753243E-16
  9.53592117480318031E-18  5.43009265992748376E-19  2.87130827522873874E-20
  1.33239298926879440E-21  4.51532707598343377E-23 -1.57397069697463125E-25
 -2.33223259882588889E-25 -3.10171045766809755E-26 -3.13307420072261131E-27
 -2.81563881148830598E-28 -2.36817474666010645E-29 -1.90682244096122620E-30
 -1.48752937979780172E-31 -1.13217710236722307E-32 -8.44368085524289007E-34
 -6.18733354264420730E-35 -4.46237691743501336E-36  0.00000000000000000E+00
  0.00000000000000000E+00  0.00000000000000000E+00  0.00000000000000000E+00
  0.00000000000000000E+00  0.00000000000000000E+00  0.00000000000000000E+00
  0.00000000000000000E+00  0.00000000000000000E+00  0.00000000000000000E+00
  0.00000000000000000E+00  0.00000000000000000E+00  0.00000000000000000E+00
  0.00000000000000000E+00  0.00000000000000000E+00  0.00000000000000000E+00
  0.00000000000000000E+00  0.00000000000000000E+00  0.00000000000000000E+00
  0.00000000000000000E+00  0.00000000000000000E+00  0.00000000000000000E+00
  0.00000000000000000E+00  0.00000000000000000E+00  0.00000000000000000E+00
  0.00000000000000000E+00  0.00000000000000000E+00  0.00000000000000000E+00
  0.00000000000000000E+00  0.00000000000000000E+00  0.00000000000000000E+00
  0.00000000000000000E+00  0.00000000000000000E+00  0.00000000000000000E+00
  0.00000000000000000E+00  0.00000000000000000E+00  0.00000000000000000E+00
  0.00000000000000000E+00  0.00000000000000000E+00  0.00000000000000000E+00
  0.00000000000000000E+00  0.00000000000000000E+00  0.00000000000000000E+00
  0.00000000000000000E+00  0.00000000000000000E+00  0.00000000000000000E+00
  0.00000000000000000E+00  0.00000000000000000E+00  0.00000000000000000E+00
  0.00000000000000000E+00  0.00000000000000000E+00  0.00000000000000000E+00
  0.00000000000000000E+00  0.00000000000000000E+00  0.00000000000000000E+00
  0.00000000000000000E+00  0.00000000000000000E+00  0.00000000000000000E+00
  0.00000000000000000E+00  0.00000000000000000E+00  0.00000000000000000E+00
  0.00000000000000000E+00  0.00000000000000000E+00  0.00000000000000000E+00
  0.00000000000000000E+00  0.00000000000000000E+00  0.00000000000000000E+00
  0.00000000000000000E+00  0.00000000000000000E+00  0.00000000000000000E+00
  0.00000000000000000E+00  0.00000000000000000E+00  0.00000000000000000E+00
  0.00000000000000000E+00  0.00000000000000000E+00  0.00000000000000000E+00
  0.00000000000000000E+00  0.00000000000000000E+00  0.00000000000000000E+00
  0.00000000000000000E+00  0.00000000000000000E+00  0.00000000000000000E+00
  0.00000000000000000E+00  0.00000000000000000E+00  0.00000000000000000E+00
  0.00000000000000000E+00  0.00000000000000000E+00  0.00000000000000000E+00
  0.00000000000000000E+00  0.00000000000000000E+00  0.00000000000000000E+00
  0.00000000000000000E+00  0.00000000000000000E+00  0.00000000000000000E+00
  0.00000000000000000E+00  0.00000000000000000E+00  0.00000000000000000E+00
  0.00000000000000000E+00  0.00000000000000000E+00  0.00000000000000000E+00
  0.00000000000000000E+00  0.00000000000000000E+00  0.00000000000000000E+00
  0.00000000000000000E+00  0.00000000000000000E+00  0.00000000000000000E+00
  0.00000000000000000E+00  0.00000000000000000E+00  0.00000000000000000E+00
  0.00000000000000000E+00  0.00000000000000000E+00  0.00000000000000000E+00
  0.00000000000000000E+00  0.00000000000000000E+00  0.00000000000000000E+00
  0.00000000000000000E+00  0.00000000000000000E+00  0.00000000000000000E+00
  0.00000000000000000E+00  0.00000000000000000E+00  0.00000000000000000E+00
  0.00000000000000000E+00  0.00000000000000000E+00  0.00000000000000000E+00
  0.00000000000000000E+00  0.00000000000000000E+00  0.00000000000000000E+00
  0.00000000000000000E+00  0.00000000000000000E+00  0.00000000000000000E+00
  0.00000000000000000E+00  0.00000000000000000E+00  0.00000000000000000E+00
  0.00000000000000000E+00  0.00000000000000000E+00  0.00000000000000000E+00
  0.00000000000000000E+00  0.00000000000000000E+00  0.00000000000000000E+00
  0.00000000000000000E+00  0.00000000000000000E+00  0.00000000000000000E+00
  0.00000000000000000E+00  0.00000000000000000E+00  0.00000000000000000E+00
  0.00000000000000000E+00  0.00000000000000000E+00  0.00000000000000000E+00
  0.00000000000000000E+00  0.00000000000000000E+00  0.00000000000000000E+00
  0.00000000000000000E+00  0.00000000000000000E+00  0.00000000000000000E+00
  0.00000000000000000E+00  0.00000000000000000E+00  0.00000000000000000E+00
  0.00000000000000000E+00  0.00000000000000000E+00  0.00000000000000000E+00
  0.00000000000000000E+00  0.00000000000000000E+00  0.00000000000000000E+00
                       </PP_QIJL.2.2.0>
 <PP_QIJL.2.3.1 type="real" size="   999" columns="3" first_index=" 2" second_index=" 3" composite_index=" 5" angular_momentum="1">
 -6.83786525156339631E-13 -7.09915373762398383E-13 -7.37042657848841549E-13
 -7.65206529628919814E-13 -7.94446599188119370E-13 -8.24803990192377230E-13
 -8.56321397725010504E-13 -8.89043148333684053E-13 -9.23015262371941022E-13
 -9.58285518722928603E-13 -9.94903521996281566E-13 -1.03292077229278028E-12
 -1.07239073763488119E-12 -1.11336892916491670E-12 -1.15591297921676135E-12
 -1.20008272237081453E-12 -1.24594027960625440E-12 -1.29355014566884653E-12
 -1.34297927977732850E-12 -1.39429719979588170E-12 -1.44757608000500264E-12
 -1.50289085260850372E-12 -1.56031931311930318E-12 -1.61994222977211919E-12
 -1.68184345711712682E-12 -1.74611005395425629E-12 -1.81283240577391842E-12
 -1.88210435187650033E-12 -1.95402331734938237E-12 -2.02869045008694501E-12
 -2.10621076304647255E-12 -2.18669328193997155E-12 -2.27025119856942327E-12
 -2.35700203002149009E-12 -2.44706778394526193E-12 -2.54057513014550979E-12
 -2.63765557873308848E-12 -2.73844566508257927E-12 -2.84308714185766473E-12
 -2.95172717837424377E-12 -3.06451856758132843E-12 -3.18161994095147077E-12
 -3.30319599158227083E-12 -3.42941770582316777E-12 -3.56046260375326240E-12
 -3.69651498884793364E-12 -3.83776620718616746E-12 -3.98441491656230417E-12
 -4.13666736588135326E-12 -4.29473768523049248E-12 -4.45884818703460215E-12
 -4.62922967871991509E-12 -4.80612178732471036E-12 -4.98977329651450519E-12
 -5.18044249647484251E-12 -5.37839754717450934E-12 -5.58391685550948908E-12
 -5.79728946685860440E-12 -6.01881547160103510E-12 -6.24880642716789040E-12
 -6.48758579622102681E-12 -6.73548940157564706E-12 -6.99286589850645667E-12
 -7.26007726510137148E-12 -7.53749931135295510E-12 -7.82552220770279838E-12
 -8.12455103378308405E-12 -8.43500634812632437E-12 -8.75732477964502144E-12
 -9.09195964171294088E-12 -9.43938156971146055E-12 -9.80007918293811701E-12
 -1.01745597718077001E-11 -1.05633500113129795E-11 -1.09669967017478538E-11
 -1.13860675377353514E-11 -1.18211519066412185E-11 -1.22728617174972037E-11
 -1.27418322615983329E-11 -1.32287231059860431E-11 -1.37342190210725471E-11
 -1.42590309437117219E-11 -1.48038969770712197E-11 -1.53695834287108247E-11
 -1.59568858883289641E-11 -1.65666303466910020E-11 -1.71996743573145324E-11
 -1.78569082425451776E-11 -1.85392563457181676E-11 -1.92476783311684745E-11
 -1.99831705339161401E-11 -2.07467673609258500E-11 -2.15395427459120089E-11
 -2.23626116597340332E-11 -2.32171316785073341E-11 -2.41043046116347505E-11
 -2.50253781920482521E-11 -2.59816478310380380E-11 -2.69744584401375789E-11
 -2.80052063226261466E-11 -2.90753411373088476E-11 -3.01863679373378487E-11
 -3.13398492869399995E-11 -3.25374074590287403E-11 -3.37807267167921426E-11
 -3.50715556824637302E-11 -3.64117097966092171E-11 -3.78030738713874238E-11
 -3.92476047413765278E-11 -4.07473340156936976E-11 -4.23043709352774678E-11
 -4.39209053393539814E-11 -4.55992107452572448E-11 -4.73416475459351352E-11
 -4.91506663296386759E-11 -5.10288113264626703E-11 -5.29787239865862010E-11
 -5.50031466952443719E-11 -5.71049266296562820E-11 -5.92870197633339154E-11
 -6.15524950234033137E-11 -6.39045386067858115E-11 -6.63464584613081518E-11
 -6.88816889380453335E-11 -7.15137956214384672E-11 -7.42464803439798775E-11
 -7.70835863925207067E-11 -8.00291039135208715E-11 -8.30871755248441585E-11
 -8.62621021419918139E-11 -8.95583490269659803E-11 -9.29805520682740471E-11
 -9.65335243009033560E-11 -1.00222262675436893E-10 -1.04051955085829853E-10
 -1.08027987665732633E-10 -1.12155952363617579E-10 -1.16441654807369326E-10
 -1.20891122469394363E-10 -1.25510613143735737E-10 -1.30306623747116233E-10
 -1.35285899456283266E-10 -1.40455443194512592E-10 -1.45822525480608244E-10
 -1.51394694654251645E-10 -1.57179787492082877E-10 -1.63185940229439445E-10
 -1.69421600003260631E-10 -1.75895536732244903E-10 -1.82616855450971799E-10
 -1.89595009115336175E-10 -1.96839811897298015E-10 -2.04361452987655271E-10
 -2.12170510926244176E-10 -2.20277968479724253E-10 -2.28695228087875359E-10
 -2.37434127900120403E-10 -2.46506958424841176E-10 -2.55926479814892694E-10
 -2.65705939813629657E-10 -2.75859092386689963E-10 -2.86400217065724544E-10
 -2.97344139031297176E-10 -3.08706249963184782E-10 -3.20502529687408270E-10
 -3.32749568650441556E-10 -3.45464591252193238E-10 -3.58665480070594478E-10
 -3.72370801011850105E-10 -3.86599829421728535E-10 -4.01372577194615811E-10
 -4.16709820918450352E-10 -4.32633131095135710E-10 -4.49164902477517437E-10
 -4.66328385565589628E-10 -4.84147719306239490E-10 -5.02647965042496041E-10
 -5.21855141760053046E-10 -5.41796262680622929E-10 -5.62499373253590301E-10
 -5.83993590599402610E-10 -6.06309144460153771E-10 -6.29477419714975033E-10
 -6.53531000520014045E-10 -6.78503716135075630E-10 -7.04430688501401526E-10
 -7.31348381637459323E-10 -7.59294652922253643E-10 -7.88308806338253008E-10
 -8.18431647748829456E-10 -8.49705542287959282E-10 -8.82174473942868290E-10
 -9.15884107413445466E-10 -9.50881852335416969E-10 -9.87216929957604721E-10
 -1.02494044236704399E-09 -1.06410544435928785E-09 -1.10476701805503871E-09
 -1.14698235036800276E-09 -1.19081081343290732E-09 -1.23631404810684196E-09
 -1.28355605066130592E-09 -1.33260326278693172E-09 -1.38352466503741399E-09
 -1.43639187384413092E-09 -1.49127924223784592E-09 -1.54826396441911424E-09
 -1.60742618432458176E-09 -1.66884910834172750E-09 -1.73261912233062518E-09
 -1.79882591311736917E-09 -1.86756259462986128E-09 -1.93892583885353814E-09
 -2.01301601179112639E-09 -2.08993731461756758E-09 -2.16979793022883349E-09
 -2.25271017539047663E-09 -2.33879065870009021E-09 -2.42816044458579989E-09
 -2.52094522357128557E-09 -2.61727548904706173E-09 -2.71728672079629586E-09
 -2.82111957553354777E-09 -2.92892008472428718E-09 -3.04083985996328912E-09
 -3.15703630620106798E-09 -3.27767284311771916E-09 -3.40291913495610281E-09
 -3.53295132913702585E-09 -3.66795230399246151E-09 -3.80811192596493740E-09
 -3.95362731663483424E-09 -4.10470312995129497E-09 -4.26155184005641781E-09
 -4.42439404010771429E-09 -4.59345875251891302E-09 -4.76898375105552482E-09
 -4.95121589523810001E-09 -5.14041147752355113E-09 -5.33683658375260785E-09
 -5.54076746737063580E-09 -5.75249093794770897E-09 -5.97230476454464180E-09
 -6.20051809449221192E-09 -6.43745188817226366E-09 -6.68343937041260443E-09
 -6.93882649912988399E-09 -7.20397245188034516E-09 -7.47925013100164475E-09
 -7.76504668805743304E-09 -8.06176406832085088E-09 -8.36981957606386327E-09
 -8.68964646144667853E-09 -9.02169452983269219E-09 -9.36643077438652535E-09
 -9.72434003284342040E-09 -1.00959256693753643E-08 -1.04817102825112639E-08
 -1.08822364401076258E-08 -1.12980674424035542E-08 -1.17297881142317997E-08
 -1.21780056275019439E-08 -1.26433503551105910E-08 -1.31264767574802143E-08
 -1.36280643029739942E-08 -1.41488184234793048E-08 -1.46894715065055421E-08
 -1.52507839251905954E-08 -1.58335451076637724E-08 -1.64385746472707243E-08
 -1.70667234552202163E-08 -1.77188749572736940E-08 -1.83959463361617581E-08
 -1.90988898214736608E-08 -1.98286940288332763E-08 -2.05863853502466118E-08
 -2.13730293975745857E-08 -2.21897325011602776E-08 -2.30376432657206342E-08
 -2.39179541856887048E-08 -2.48319033222769509E-08 -2.57807760446232234E-08
 -2.67659068374653588E-08 -2.77886811778861924E-08 -2.88505374837698408E-08
 -2.99529691367083883E-08 -3.10975265822032319E-08 -3.22858195101136287E-08
 -3.35195191184217314E-08 -3.48003604634944861E-08 -3.61301449001467565E-08
 -3.75107426149399256E-08 -3.89440952562764108E-08 -4.04322186649882136E-08
 -4.19772057092586859E-08 -4.35812292278659399E-08 -4.52465450858858771E-08
 -4.69754953471494235E-08 -4.87705115679165197E-08 -5.06341182163999044E-08
 -5.25689362229443378E-08 -5.45776866658543600E-08 -5.66631945980512370E-08
 -5.88283930199442563E-08 -6.10763270040995522E-08 -6.34101579775052938E-08
 -6.58331681674555998E-08 -6.83487652173046681E-08 -7.09604869785822834E-08
 -7.36720064862064886E-08 -7.64871371237886731E-08 -7.94098379862941754E-08
 -8.24442194476008436E-08 -8.55945489407810001E-08 -8.88652569592347142E-08
 -9.22609432871094935E-08 -9.57863834677702339E-08 -9.94465355194121021E-08
 -1.03246546907259311E-07 -1.07191761782150453E-07 -1.11287728495686741E-07
 -1.15540207402510927E-07 -1.19955178960687036E-07 -1.24538852141567866E-07
 -1.29297673160973770E-07 -1.34238334543955302E-07 -1.39367784535886530E-07
 -1.44693236873118617E-07 -1.50222180926930890E-07 -1.55962392235039040E-07
 -1.61921943435462832E-07 -1.68109215618128883E-07 -1.74532910110160774E-07
 -1.81202060711426853E-07 -1.88126046397550713E-07 -1.95314604508230613E-07
 -2.02777844439414760E-07 -2.10526261858577089E-07 -2.18570753463070672E-07
 -2.26922632302311977E-07 -2.35593643685327066E-07 -2.44595981696025011E-07
 -2.53942306339408335E-07 -2.63645761342817246E-07 -2.73719992637238784E-07
 -2.84179167544640958E-07 -2.95037994698314505E-07 -3.06311744724213085E-07
 -3.18016271712357949E-07 -3.30168035508490359E-07 -3.42784124857287744E-07
 -3.55882281429680223E-07 -3.69480924768032157E-07 -3.83599178184233746E-07
 -3.98256895647116106E-07 -4.13474689696952551E-07 -4.29273960426296009E-07
 -4.45676925567859220E-07 -4.62706651731719225E-07 -4.80387086835747656E-07
 -4.98743093774819816E-07 -5.17800485376130172E-07 -5.37586060689711599E-07
 -5.58127642665151367E-07 -5.79454117267446123E-07 -6.01595474086938701E-07
 -6.24582848500407537E-07 -6.48448565442523994E-07 -6.73226184849167657E-07
 -6.98950548836456018E-07 -7.25657830681737238E-07 -7.53385585675371209E-07
 -7.82172803914725093E-07 -8.12059965114516908E-07 -8.43089095510528741E-07
 -8.75303826936574936E-07 -9.08749458157723067E-07 -9.43473018545906176E-07
 -9.79523334187322656E-07 -1.01695109651449947E-06 -1.05580893355935856E-06
 -1.09615148392736795E-06 -1.13803547359664448E-06 -1.18151979564982118E-06
 -1.22666559305066322E-06 -1.27353634458161081E-06 -1.32219795406292694E-06
 -1.37271884297869337E-06 -1.42517004663966626E-06 -1.47962531401801185E-06
 -1.53616121139401200E-06 -1.59485722996026869E-06 -1.65579589753439386E-06
 -1.71906289453696812E-06 -1.78474717439756006E-06 -1.85294108855772635E-06
 -1.92374051624643652E-06 -1.99724499921001376E-06 -2.07355788158556228E-06
 -2.15278645511423431E-06 -2.23504210989793154E-06 -2.32044049091099788E-06
 -2.40910166048643030E-06 -2.50115026700447656E-06 -2.59671572002024611E-06
 -2.69593237207591533E-06 -2.79893970745248769E-06 -2.90588253812576869E-06
 -3.01691120720130963E-06 -3.13218180011355440E-06 -3.25185636388521628E-06
 -3.37610313475427384E-06 -3.50509677448763015E-06 -3.63901861571260087E-06
 -3.77805691661009017E-06 -3.92240712532630021E-06 -4.07227215447347316E-06
 -4.22786266610424825E-06 -4.38939736755880981E-06 -4.55710331859929649E-06
 -4.73121625026152903E-06 -4.91198089587072402E-06 -5.09965133468455120E-06
 -5.29449134864484983E-06 -5.49677479273728000E-06 -5.70678597947746760E-06
 -5.92482007806168157E-06 -6.15118352874072527E-06 -6.38619447299682756E-06
 -6.63018320012537920E-06 -6.88349261084627095E-06 -7.14647869859332934E-06
 -7.41951104915486263E-06 -7.70297335936408886E-06 -7.99726397556455672E-06
 -8.30279645260333965E-06 -8.62000013413329536E-06 -8.94932075503530521E-06
 -9.29122106680238251E-06 -9.64618148675912367E-06 -1.00147007720234559E-05
 -1.03972967191519010E-05 -1.07945068904451200E-05 -1.12068893679279503E-05
 -1.16350235360560213E-05 -1.20795108942414248E-05 -1.25409759003309901E-05
 -1.30200668462138321E-05 -1.35174567667792947E-05 -1.40338443834927199E-05
 -1.45699550839043085E-05 -1.51265419384565883E-05 -1.57043867560067311E-05
 -1.63043011795348353E-05 -1.69271278235636156E-05 -1.75737414548735923E-05
 -1.82450502181572073E-05 -1.89419969083176224E-05 -1.96655602911824165E-05
 -2.04167564744690532E-05 -2.11966403309084361E-05 -2.20063069755051477E-05
 -2.28468932989868016E-05 -2.37195795595735649E-05 -2.46255910352778369E-05
 -2.55661997390287111E-05 -2.65427261990013619E-05 -2.75565413066214969E-05
 -2.86090682348083845E-05 -2.97017844291155176E-05 -3.08362236745291082E-05
 -3.20139782407874335E-05 -3.32367011091925580E-05 -3.45061082839968658E-05
 -3.58239811915631308E-05 -3.71921691706166214E-05 -3.86125920570325055E-05
 -4.00872428667307386E-05 -4.16181905803848342E-05 -4.32075830337894687E-05
 -4.48576499178760077E-05 -4.65707058925145286E-05 -4.83491538183956232E-05
 -5.01954881114453357E-05 -5.21122982243943492E-05 -5.41022722602930642E-05
 -5.61682007229453330E-05 -5.83129804094170351E-05 -6.05396184499699171E-05
 -6.28512365009682760E-05 -6.52510750965144316E-05 -6.77424981647824996E-05
 -7.03289977152410671E-05 -7.30141987031867061E-05 -7.58018640782479194E-05
 -7.86959000237658605E-05 -8.17003613942154369E-05 -8.48194573580934435E-05
 -8.80575572539783275E-05 -9.14191966677479508E-05 -9.49090837392382224E-05
 -9.85321057069323545E-05 -1.02293335699583791E-04 -1.06198039784008108E-04
 -1.10251684278615282E-04 -1.14459943342607991E-04 -1.18828706851135615E-04
 -1.23364088567069524E-04 -1.28072434620459511E-04 -1.32960332307132306E-04
 -1.38034619218313926E-04 -1.43302392713592837E-04 -1.48771019749986601E-04
 -1.54448147080344224E-04 -1.60341711834792786E-04 -1.66459952499438141E-04
 -1.72811420307046907E-04 -1.79404991054963497E-04 -1.86249877366075176E-04
 -1.93355641409206761E-04 -2.00732208095913075E-04 -2.08389878771257869E-04
 -2.16339345416788722E-04 -2.24591705384579582E-04 -2.33158476681885986E-04
 -2.42051613826653559E-04 -2.51283524294849275E-04 -2.60867085581325089E-04
 -2.70815662896701278E-04 -2.81143127523549637E-04 -2.91863875855985673E-04
 -3.02992849147624640E-04 -3.14545553993744167E-04 -3.26538083574394661E-04
 -3.38987139686147156E-04 -3.51910055591129556E-04 -3.65324819713003950E-04
 -3.79250100210575816E-04 -3.93705270460781645E-04 -4.08710435483907028E-04
 -4.24286459345022153E-04 -4.40454993566784464E-04 -4.57238506589974778E-04
 -4.74660314319361187E-04 -4.92744611793787218E-04 -5.11516506020677345E-04
 -5.31002050016537389E-04 -5.51228278096416190E-04 -5.72223242456735962E-04
 -5.94016051097385599E-04 -6.16636907130513551E-04 -6.40117149525006360E-04
 -6.64489295337282720E-04 -6.89787083480675038E-04 -7.16045520087396441E-04
 -7.43300925518840185E-04 -7.71590983081767634E-04 -8.00954789509792818E-04
 -8.31432907271475075E-04 -8.63067418768289057E-04 -8.95901982487728055E-04
 -9.29981891178870471E-04 -9.65354132119829265E-04 -1.00206744954865670E-03
 -1.04017240933149038E-03 -1.07972146594397574E-03 -1.12076903184431492E-03
 -1.16337154931863101E-03 -1.20758756488177025E-03 -1.25347780631909810E-03
 -1.30110526245736258E-03 -1.35053526575524673E-03 -1.40183557780683594E-03
 -1.45507647785387607E-03 -1.51033085440535511E-03 -1.56767430006573292E-03
 -1.62718520967585086E-03 -1.68894488187339522E-03 -1.75303762418263162E-03
 -1.81955086174598215E-03 -1.88857524981293529E-03 -1.96020479010464805E-03
 -2.03453695117567163E-03 -2.11167279289712316E-03 -2.19171709518852214E-03
 -2.27477849112854656E-03 -2.36096960457794465E-03 -2.45040719245077964E-03
 -2.54321229177309743E-03 -2.63951037167108266E-03 -2.73943149043354281E-03
 -2.84311045779651016E-03 -2.95068700260038910E-03 -3.06230594597288637E-03
 -3.17811738019351756E-03 -3.29827685339798091E-03 -3.42294556028317027E-03
 -3.55229053897578896E-03 -3.68648487422967202E-03 -3.82570790711893967E-03
 -3.97014545139576236E-03 -4.11999001668318047E-03 -4.27544103867463863E-03
 -4.43670511651305007E-03 -4.60399625752288665E-03 -4.77753612946927100E-03
 -4.95755432051811148E-03 -5.14428860707109165E-03 -5.33798522964845125E-03
 -5.53889917699147173E-03 -5.74729447855475400E-03 -5.96344450555614906E-03
 -6.18763228074923309E-03 -6.42015079707952685E-03 -6.66130334538294917E-03
 -6.91140385127774187E-03 -7.17077722139624219E-03 -7.43975969909643851E-03
 -7.71869922978508753E-03 -8.00795583597571116E-03 -8.30790200219461497E-03
 -8.61892306983717132E-03 -8.94141764206399584E-03 -9.27579799881293222E-03
 -9.62249052198737090E-03 -9.98193613086430578E-03 -1.03545907277471910E-02
 -1.07409256538675245E-02 -1.11414281555170976E-02 -1.15566018603677073E-02
 -1.19869672639084709E-02 -1.24330622259010981E-02 -1.28954424767220698E-02
 -1.33746821334252072E-02 -1.38713742253210679E-02 -1.43861312288282271E-02
 -1.49195856113078663E-02 -1.54723903835448547E-02 -1.60452196604874107E-02
 -1.66387692298018974E-02 -1.72537571277393970E-02 -1.78909242217460476E-02
 -1.85510347991783599E-02 -1.92348771614215784E-02 -1.99432642226150224E-02
 -2.06770341121096310E-02 -2.14370507796926638E-02 -2.22242046025167700E-02
 -2.30394129925667011E-02 -2.38836210033857056E-02 -2.47578019346658129E-02
 -2.56629579331797975E-02 -2.66001205883986645E-02 -2.75703515209957846E-02
 -2.85747429622868199E-02 -2.96144183224936776E-02 -3.06905327455494620E-02
 -3.18042736479798790E-02 -3.29568612392047502E-02 -3.41495490203988991E-02
 -3.53836242588374539E-02 -3.66604084344219136E-02 -3.79812576548431702E-02
 -3.93475630355846415E-02 -4.07607510406998719E-02 -4.22222837800182368E-02
 -4.37336592581352088E-02 -4.52964115702312597E-02 -4.69121110394370017E-02
 -4.85823642901090438E-02 -5.03088142510273867E-02 -5.20931400821880927E-02
 -5.39370570183905010E-02 -5.58423161224512535E-02 -5.78107039404446299E-02
 -5.98440420509147031E-02 -6.19441864995372293E-02 -6.41130271102227922E-02
 -6.63524866631467064E-02 -6.86645199296698483E-02 -7.10511125535692595E-02
 -7.35142797674401549E-02 -7.60560649325527083E-02 -7.86785378898517684E-02
 -8.13837931091780098E-02 -8.41739476231641165E-02 -8.70511387316178081E-02
 -9.00175214615550612E-02 -9.30752657673810518E-02 -9.62265534550486856E-02
 -9.94735748133441927E-02 -1.02818524934771310E-01 -1.06263599707822662E-01
 -1.09810991461750565E-01 -1.13462884244278250E-01 -1.17221448712034937E-01
 -1.21088836612819190E-01 -1.25067174838223827E-01 -1.29158559024705383E-01
 -1.33365046680305771E-01 -1.37688649813934666E-01 -1.42131327043641842E-01
 -1.46694975159903096E-01 -1.51381420119622745E-01 -1.56192407446323206E-01
 -1.61129592011853257E-01 -1.66194527174923085E-01 -1.71388653251877521E-01
 -1.76713285295360900E-01 -1.82169600156939032E-01 -1.87758622810328901E-01
 -1.93481211912678225E-01 -1.99338044582352242E-01 -2.05329600372950838E-01
 -2.11456144424816805E-01 -2.17717709777142970E-01 -2.24114078825959712E-01
 -2.30644763915832329E-01 -2.37308987056035647E-01 -2.44105658755359139E-01
 -2.51033355973542038E-01 -2.58090299191715999E-01 -2.65274328609124921E-01
 -2.72582879478841689E-01 -2.80012956601889296E-01 -2.87561108005379706E-01
 -2.95223397838095758E-01 -3.02995378525522385E-01 -3.10872062235543034E-01
 -3.18847891716181275E-01 -3.26916710577932312E-01 -3.35071733105384795E-01
 -3.43305513696082698E-01 -3.51609916038953141E-01 -3.59976082160172128E-01
 -3.68394401481148992E-01 -3.76854480051384610E-01 -3.85345110138361036E-01
 -3.93854240377423670E-01 -4.02368946706778308E-01 -4.10875404336368877E-01
 -4.19358861024455409E-01 -4.27803611962233377E-01 -4.36192976594818316E-01
 -4.44509277736293507E-01 -4.52733823367312493E-01 -4.60846891535838021E-01
 -4.68827718814933292E-01 -4.76654492806070751E-01 -4.84304349212327956E-01
 -4.91753374040309166E-01 -4.98976611528138436E-01 -5.05948078434032333E-01
 -5.12640785356547224E-01 -5.19026765794670220E-01 -5.25077113692084207E-01
 -5.30762030244847582E-01 -5.36050880784877837E-01 -5.40912262582415204E-01
 -5.45314084438304092E-01 -5.49223658960765082E-01 -5.52607808440367609E-01
 -5.55432985250268518E-01 -5.57665407705297711E-01 -5.59271212312012489E-01
 -5.60216623331088459E-01 -5.60468140551958038E-01 -5.59992746145900555E-01
 -5.58758131416216330E-01 -5.56732944200863389E-01 -5.53887057602154287E-01
 -5.50191860617786688E-01 -5.45620571125519982E-01 -5.40148571528031529E-01
 -5.33753767194537598E-01 -5.26416967635485622E-01 -5.18122290099545246E-01
 -5.08857585044917959E-01 -4.98614882623027056E-01 -4.87390858975266128E-01
 -4.75187320767763710E-01 -4.62011705970253039E-01 -4.47877598422849355E-01
 -4.32805253227532771E-01 -4.16822129448525092E-01 -3.99963426007158784E-01
 -3.82272616012575561E-01 -3.63801974080762480E-01 -3.44613090462927818E-01
 -3.24777365033286802E-01 -3.04376473380046253E-01 -2.83502796407722302E-01
 -2.62259804001022445E-01 -2.40762382429672073E-01 -2.19137094300874163E-01
 -1.97522359004923348E-01 -1.76068540765775661E-01 -1.54937930620482750E-01
 -1.34304607930684272E-01 -1.14354166400035540E-01 -9.52832890551121442E-02
 -7.72991562953809219E-02 -6.06186709516124689E-02 -4.54674843138117984E-02
 -3.20788073746815783E-02 -2.06919916096223455E-02 -1.15508558373114655E-02
 -4.90159802356053293E-03 -9.87962822716886803E-04  1.87264033823164411E-05
  1.34289845993468086E-06  9.49024318334416817E-08  6.61049848659800422E-09
  4.53707461898327895E-10  3.06577589723440235E-11  2.03658842994346339E-12
  1.32708859622068630E-13  8.45439879575645026E-15  5.23911617967033436E-16
  3.13309417551204247E-17  1.78409525135998735E-18  9.43388590185607309E-20
  4.37767116322377744E-21  1.48354256531353784E-22 -5.17139176459228287E-25
 -7.66271473659858821E-25 -1.01908885265562796E-25 -1.02939363169952376E-26
 -9.25097995139595317E-28 -7.78080519893622927E-29 -6.26499965131534617E-30
 -4.88738271878984417E-31 -3.71984774208040899E-32 -2.77423091303918936E-33
 -2.03289208552092787E-34 -1.46614541717240548E-35  0.00000000000000000E+00
  0.00000000000000000E+00  0.00000000000000000E+00  0.00000000000000000E+00
  0.00000000000000000E+00  0.00000000000000000E+00  0.00000000000000000E+00
  0.00000000000000000E+00  0.00000000000000000E+00  0.00000000000000000E+00
  0.00000000000000000E+00  0.00000000000000000E+00  0.00000000000000000E+00
  0.00000000000000000E+00  0.00000000000000000E+00  0.00000000000000000E+00
  0.00000000000000000E+00  0.00000000000000000E+00  0.00000000000000000E+00
  0.00000000000000000E+00  0.00000000000000000E+00  0.00000000000000000E+00
  0.00000000000000000E+00  0.00000000000000000E+00  0.00000000000000000E+00
  0.00000000000000000E+00  0.00000000000000000E+00  0.00000000000000000E+00
  0.00000000000000000E+00  0.00000000000000000E+00  0.00000000000000000E+00
  0.00000000000000000E+00  0.00000000000000000E+00  0.00000000000000000E+00
  0.00000000000000000E+00  0.00000000000000000E+00  0.00000000000000000E+00
  0.00000000000000000E+00  0.00000000000000000E+00  0.00000000000000000E+00
  0.00000000000000000E+00  0.00000000000000000E+00  0.00000000000000000E+00
  0.00000000000000000E+00  0.00000000000000000E+00  0.00000000000000000E+00
  0.00000000000000000E+00  0.00000000000000000E+00  0.00000000000000000E+00
  0.00000000000000000E+00  0.00000000000000000E+00  0.00000000000000000E+00
  0.00000000000000000E+00  0.00000000000000000E+00  0.00000000000000000E+00
  0.00000000000000000E+00  0.00000000000000000E+00  0.00000000000000000E+00
  0.00000000000000000E+00  0.00000000000000000E+00  0.00000000000000000E+00
  0.00000000000000000E+00  0.00000000000000000E+00  0.00000000000000000E+00
  0.00000000000000000E+00  0.00000000000000000E+00  0.00000000000000000E+00
  0.00000000000000000E+00  0.00000000000000000E+00  0.00000000000000000E+00
  0.00000000000000000E+00  0.00000000000000000E+00  0.00000000000000000E+00
  0.00000000000000000E+00  0.00000000000000000E+00  0.00000000000000000E+00
  0.00000000000000000E+00  0.00000000000000000E+00  0.00000000000000000E+00
  0.00000000000000000E+00  0.00000000000000000E+00  0.00000000000000000E+00
  0.00000000000000000E+00  0.00000000000000000E+00  0.00000000000000000E+00
  0.00000000000000000E+00  0.00000000000000000E+00  0.00000000000000000E+00
  0.00000000000000000E+00  0.00000000000000000E+00  0.00000000000000000E+00
  0.00000000000000000E+00  0.00000000000000000E+00  0.00000000000000000E+00
  0.00000000000000000E+00  0.00000000000000000E+00  0.00000000000000000E+00
  0.00000000000000000E+00  0.00000000000000000E+00  0.00000000000000000E+00
  0.00000000000000000E+00  0.00000000000000000E+00  0.00000000000000000E+00
  0.00000000000000000E+00  0.00000000000000000E+00  0.00000000000000000E+00
  0.00000000000000000E+00  0.00000000000000000E+00  0.00000000000000000E+00
  0.00000000000000000E+00  0.00000000000000000E+00  0.00000000000000000E+00
  0.00000000000000000E+00  0.00000000000000000E+00  0.00000000000000000E+00
  0.00000000000000000E+00  0.00000000000000000E+00  0.00000000000000000E+00
  0.00000000000000000E+00  0.00000000000000000E+00  0.00000000000000000E+00
  0.00000000000000000E+00  0.00000000000000000E+00  0.00000000000000000E+00
  0.00000000000000000E+00  0.00000000000000000E+00  0.00000000000000000E+00
  0.00000000000000000E+00  0.00000000000000000E+00  0.00000000000000000E+00
  0.00000000000000000E+00  0.00000000000000000E+00  0.00000000000000000E+00
  0.00000000000000000E+00  0.00000000000000000E+00  0.00000000000000000E+00
  0.00000000000000000E+00  0.00000000000000000E+00  0.00000000000000000E+00
  0.00000000000000000E+00  0.00000000000000000E+00  0.00000000000000000E+00
  0.00000000000000000E+00  0.00000000000000000E+00  0.00000000000000000E+00
  0.00000000000000000E+00  0.00000000000000000E+00  0.00000000000000000E+00
  0.00000000000000000E+00  0.00000000000000000E+00  0.00000000000000000E+00
  0.00000000000000000E+00  0.00000000000000000E+00  0.00000000000000000E+00
  0.00000000000000000E+00  0.00000000000000000E+00  0.00000000000000000E+00
  0.00000000000000000E+00  0.00000000000000000E+00  0.00000000000000000E+00
  0.00000000000000000E+00  0.00000000000000000E+00  0.00000000000000000E+00
                       </PP_QIJL.2.3.1>
 <PP_QIJL.2.4.1 type="real" size="   999" columns="3" first_index=" 2" second_index=" 4" composite_index=" 8" angular_momentum="1">
  1.43087374357743417E-12  1.48555028668680758E-12  1.54231612968873398E-12
  1.60125110890374778E-12  1.66243811135757719E-12  1.72596319135469303E-12
  1.79191569150635038E-12  1.86038836838329644E-12  1.93147752297002401E-12
  2.00528313610393996E-12  2.08190900908980151E-12  2.16146290968740984E-12
  2.24405672367783717E-12  2.32980661222120844E-12  2.41883317522741885E-12
  2.51126162096966796E-12  2.60722194217925589E-12  2.70684909886916838E-12
  2.81028320814387772E-12  2.91766974126218653E-12  3.02915972822998785E-12
  3.14490997021115231E-12  3.26508326005506810E-12  3.38984861125077123E-12
  3.51938149563005567E-12  3.65386409015368980E-12  3.79348553312766876E-12
  3.93844219021013043E-12  4.08893793058300602E-12  4.24518441367648511E-12
  4.40740138684999474E-12  4.57581699444821825E-12  4.75066809866642178E-12
  4.93220061267712517E-12  5.12066984648597656E-12  5.31634086600328724E-12
  5.51948886583689757E-12  5.73039955632968666E-12  5.94936956538683153E-12
  6.17670685565783344E-12  6.41273115765931133E-12  6.65777441944907035E-12
  6.91218127348246776E-12  7.17630952130855573E-12  7.45053063678766716E-12
  7.73523028853722523E-12  8.03080888234220168E-12  8.33768212429129775E-12
  8.65628160543224661E-12  8.98705540876782454E-12  9.33046873944603408E-12
  9.68700457903183304E-12  1.00571643647789695E-11  1.04414686948591286E-11
  1.08404580605384015E-11  1.12546936063323617E-11  1.16847579192076140E-11
  1.21312558479408508E-11  1.25948153537867468E-11  1.30760883936520097E-11
  1.35757518370168850E-11  1.40945084178942364E-11  1.46330877231650324E-11
  1.51922472186796410E-11  1.57727733145692282E-11  1.63754824712638383E-11
  1.70012223477746215E-11  1.76508729938534616E-11  1.83253480877078176E-11
  1.90255962210110648E-11  1.97526022330152817E-11  2.05073885956436892E-11
  2.12910168515096423E-11  2.21045891068858257E-11  2.29492495817220828E-11
  2.38261862188932468E-11  2.47366323549384487E-11  2.56818684546442441E-11
  2.66632239119079029E-11  2.76820789194167656E-11  2.87398664097706505E-11
  2.98380740707787336E-11  3.09782464377656950E-11  3.21619870658272580E-11
  3.33909607850942500E-11  3.46668960421726207E-11  3.59915873310555964E-11
  3.73668977169262464E-11  3.87947614563979607E-11  4.02771867178815479E-11
  4.18162584059013481E-11  4.34141410933342794E-11  4.50730820656967082E-11
  4.67954144817580844E-11  4.85835606549288015E-11  5.04400354600360808E-11
  5.23674498702794076E-11  5.43685146293398612E-11  5.64460440638089713E-11
  5.86029600412972887E-11  6.08422960797889637E-11  6.31672016140255196E-11
  6.55809464249146008E-11  6.80869252381949257E-11  7.06886624988276690E-11
  7.33898173278240157E-11  7.61941886684842007E-11  7.91057206292841876E-11
  8.21285080309252166E-11  8.52668021653471187E-11  8.85250167748024849E-11
  9.19077342594060822E-11  9.54197121218858713E-11  9.90658896586003106E-11
  1.02851394906232896E-10  1.06781551853932812E-10  1.10861887931047048E-10
  1.15098141780972780E-10  1.19496271332063747E-10  1.24062462176941916E-10
  1.28803136271998710E-10  1.33724960969322655E-10  1.38834858393752835E-10
  1.44140015178249481E-10  1.49647892571271836E-10  1.55366236930376720E-10
  1.61303090616801223E-10  1.67466803306346845E-10  1.73866043732474804E-10
  1.80509811878129645E-10  1.87407451633432021E-10  1.94568663937051152E-10
  2.02003520419732811E-10  2.09722477569173211E-10  2.17736391436159936E-10
  2.26056532902665969E-10  2.34694603533361245E-10  2.43662752032847860E-10
  2.52973591331754606E-10  2.62640216325724189E-10  2.72676222292245792E-10
  2.83095724011223158E-10  2.93913375616183084E-10  3.05144391204034800E-10
  3.16804566232366918E-10  3.28910299734380567E-10  3.41478617382690887E-10
  3.54527195434448679E-10  3.68074385591445712E-10  3.82139240810174877E-10
  3.96741542098145900E-10  4.11901826334129942E-10  4.27641415151479962E-10
  4.43982444925131971E-10  4.60947897904467577E-10  4.78561634535830074E-10
  4.96848427020130990E-10  5.15833994152771815E-10  5.35545037494857259E-10
  5.56009278926580875E-10  5.77255499635604030E-10  5.99313580595239991E-10
  6.22214544589401550E-10  6.45990599843393249E-10  6.70675185321919628E-10
  6.96303017758026083E-10  7.22910140479083408E-10  7.50533974098525766E-10
  7.79213369144605249E-10  8.08988660700193233E-10  8.39901725130475020E-10
  8.71996038978302104E-10  9.05316740110061124E-10  9.39910691198036170E-10
  9.75826545628543885E-10  1.01311481592856160E-09  1.05182794480703337E-09
  1.09202037891082105E-09  1.13374864539899491E-09  1.17707143144317179E-09
  1.22204966676572020E-09  1.26874660933187628E-09  1.31722793431633524E-09
  1.36756182646941537E-09  1.41981907601268153E-09  1.47407317819896162E-09
  1.53040043667667647E-09  1.58888007080395266E-09  1.64959432706337373E-09
  1.71262859473410027E-09  1.77807152598405326E-09  1.84601516055099260E-09
  1.91655505518790384E-09  1.98979041805472827E-09  2.06582424824544354E-09
  2.14476348064673006E-09  2.22671913633188188E-09  2.31180647870161692E-09
  2.40014517559127195E-09  2.49185946757236432E-09  2.58707834268530886E-09
  2.68593571784891671E-09  2.78857062720192771E-09  2.89512741764131288E-09
  3.00575595183253771E-09  3.12061181897714431E-09  3.23985655363404489E-09
  3.36365786290250721E-09  3.49218986228607400E-09  3.62563332056922261E-09
  3.76417591405132829E-09  3.90801249049509754E-09  4.05734534316109116E-09
  4.21238449531353718E-09  4.37334799559742857E-09  4.54046222470272467E-09
  4.71396221374641871E-09  4.89409197482063644E-09  5.08110484417158165E-09
  5.27526383849164606E-09  5.47684202482636208E-09  5.68612290461570576E-09
  5.90340081241047316E-09  6.12898132982420757E-09  6.36318171530264495E-09
  6.60633135031575086E-09  6.85877220259882340E-09  7.12085930709536870E-09
  7.39296126527698828E-09  7.67546076354340306E-09  7.96875511143114450E-09
  8.27325680038788964E-09  8.58939408389856367E-09  8.91761157977872235E-09
  9.25837089548256653E-09  9.61215127730472220E-09  9.97945028438896027E-09
  1.03607844884916926E-08  1.07566902004844802E-08  1.11677242246169472E-08
  1.15944646416014213E-08  1.20375116216198673E-08  1.24974882683970513E-08
  1.29750414955269501E-08  1.34708429362843072E-08  1.39855898882017180E-08
  1.45200062937394478E-08  1.50748437584287587E-08  1.56508826079184358E-08
  1.62489329854137491E-08  1.68698359910483462E-08  1.75144648647938579E-08
  1.81837262145693419E-08  1.88785612912777086E-08  1.95999473125637931E-08
  2.03488988371527741E-08  2.11264691917053148E-08  2.19337519521927723E-08
  2.27718824818775458E-08  2.36420395280619387E-08  2.45454468798482401E-08
  2.54833750892454405E-08  2.64571432580393056E-08  2.74681208929402934E-08
  2.85177298316195158E-08  2.96074462423376763E-08  3.07388026999829301E-08
  3.19133903414354287E-08  3.31328611032881191E-08  3.43989300450742892E-08
  3.57133777612659724E-08  3.70780528854350913E-08  3.84948746901016852E-08
  3.99658357859226889E-08  4.14930049240165766E-08  4.30785299053679643E-08
  4.47246406014009525E-08  4.64336520899671866E-08  4.82079679111639988E-08
  5.00500834475571859E-08  5.19625894335597415E-08  5.39481755989081985E-08
  5.60096344513550840E-08  5.81498652038963098E-08  6.03718778520596346E-08
  6.26787974069861953E-08  6.50738682902566597E-08  6.75604588966406870E-08
  7.01420663311923258E-08  7.28223213273462338E-08  7.56049933529299711E-08
  7.84939959112779707E-08  8.14933920448984833E-08  8.46074000494315123E-08
  8.78403994059316884E-08  9.11969369398221761E-08  9.46817332151787789E-08
  9.82996891733306783E-08  1.02055893025116121E-07  1.05955627406488342E-07
  1.10004376807527328E-07  1.14207835285306369E-07  1.18571914471453976E-07
  1.23102751885680107E-07  1.27806719566949923E-07  1.32690433034439713E-07
  1.37760760590876673E-07  1.43024832981345160E-07  1.48490053421141799E-07
  1.54164108006774991E-07  1.60054976524746657E-07  1.66170943673315560E-07
  1.72520610713023813E-07  1.79112907562363521E-07  1.85957105355590849E-07
  1.93062829480338701E-07  2.00440073113367247E-07  2.08099211273479424E-07
  2.16051015411360950E-07  2.24306668556854241E-07  2.32877781044960432E-07
  2.41776406842683457E-07  2.51015060499672366E-07  2.60606734746489250E-07
  2.70564918765244830E-07  2.80903617158283378E-07  2.91637369641589150E-07
  3.02781271490600074E-07  3.14350994767173422E-07  3.26362810357543984E-07
  3.38833610852248278E-07  3.51780934300190903E-07  3.65222988870233627E-07
  3.79178678454981584E-07  3.93667629252769487E-07  4.08710217365193548E-07
  4.24327597448997349E-07  4.40541732462585851E-07  4.57375424548967937E-07
  4.74852347098557509E-07  4.92997078036887407E-07  5.11835134384037102E-07
  5.31393008134342762E-07  5.51698203506814319E-07  5.72779275618637648E-07
  5.94665870636086980E-07  6.17388767459309253E-07  6.40979920999554028E-07
  6.65472507109671951E-07  6.90900969231041200E-07  7.17301066822455069E-07
  7.44709925639053584E-07  7.73166089931956558E-07  8.02709576641930023E-07
  8.33381931663286228E-07  8.65226288257036549E-07  8.98287427695431059E-07
  9.32611842223068187E-07  9.68247800423048135E-07  1.00524541508004188E-06
  1.04365671363559389E-06  1.08353571133469801E-06  1.12493848716638711E-06
  1.16792326270503927E-06  1.21255048396319091E-06  1.25888290637082400E-06
  1.30698568300055607E-06  1.35692645616264464E-06  1.40877545249847514E-06
  1.46260558170616015E-06  1.51849253903688224E-06  1.57651491170599545E-06
  1.63675428936835455E-06  1.69929537881300334E-06  1.76422612303839238E-06
  1.83163782487529119E-06  1.90162527533107916E-06  1.97428688683565895E-06
  2.04972483157607009E-06  2.12804518511414203E-06  2.20935807548879014E-06
  2.29377783801238895E-06  2.38142317597855310E-06  2.47241732750695525E-06
  2.56688823875950124E-06  2.66496874377097501E-06  2.76679675114668926E-06
  2.87251543788921393E-06  2.98227345062624391E-06  3.09622511452214789E-06
  3.21453065016634827E-06  3.33735639874305121E-06  3.46487505579829710E-06
  3.59726591393238737E-06  3.73471511475836806E-06  3.87741591048002356E-06
  4.02556893545652759E-06  4.17938248813478598E-06  4.33907282374489420E-06
  4.50486445816961611E-06  4.67699048341390070E-06  4.85569289511714392E-06
  5.04122293256757124E-06  5.23384143169556887E-06  5.43381919154113231E-06
  5.64143735470931860E-06  5.85698780234721702E-06  6.08077356419629449E-06
  6.31310924429501631E-06  6.55432146292863632E-06  6.80474931544562117E-06
  7.06474484858393387E-06  7.33467355497478568E-06  7.61491488651688209E-06
  7.90586278734068151E-06  8.20792624710939159E-06  8.52152987543202631E-06
  8.84711449819328046E-06  9.18513777663549089E-06  9.53607485006004880E-06
  9.90041900304817469E-06  1.02786823581357024E-05  1.06713965949115186E-05
  1.10791136965468725E-05  1.15024067248002365E-05  1.19418706245829451E-05
  1.23981230592114201E-05  1.28718052775151135E-05  1.33635830140133762E-05
  1.38741474234206862E-05  1.44042160507875760E-05  1.49545338386342725E-05
  1.55258741724854039E-05  1.61190399662679721E-05  1.67348647890899707E-05
  1.73742140349748802E-05  1.80379861371869545E-05  1.87271138288441797E-05
  1.94425654515806709E-05  2.01853463140862514E-05  2.09565001024211318E-05
  2.17571103440752316E-05  2.25883019278160935E-05  2.34512426814477723E-05
  2.43471450096820939E-05  2.52772675944086326E-05  2.62429171597351628E-05
  2.72454503042610839E-05  2.82862754031389299E-05  2.93668545825763007E-05
  3.04887057695303901E-05  3.16534048194526077E-05  3.28625877250469456E-05
  3.41179529091202824E-05  3.54212636047170935E-05  3.67743503258529934E-05
  3.81791134322864535E-05  3.96375257918978478E-05  4.11516355443803061E-05
  4.27235689700860427E-05  4.43555334680174461E-05  4.60498206471030399E-05
  4.78088095350533994E-05  4.96349699092562622E-05  5.15308657543355139E-05
  5.34991588511756595E-05  5.55426125023923293E-05  5.76640953994179953E-05
  5.98665856365669229E-05  6.21531748776439543E-05  6.45270726808727684E-05
  6.69916109881349328E-05  6.95502487847375449E-05  7.22065769361602292E-05
  7.49643232084745063E-05  7.78273574793798909E-05  8.07996971470623923E-05
  8.38855127443498142E-05  8.70891337659203841E-05  9.04150547166101566E-05
  9.38679413891666670E-05  9.74526373801095762E-05  1.01174170852681562E-04
  1.05037761556209117E-04  1.09048828111542816E-04  1.13212995572604228E-04
  1.17536103274445169E-04  1.22024212978608961E-04  1.26683617326990003E-04
  1.31520848615800421E-04  1.36542687901688135E-04  1.41756174452498443E-04
  1.47168615555633386E-04  1.52787596697446837E-04  1.58620992127611263E-04
  1.64676975822908799E-04  1.70964032865435401E-04  1.77490971250761088E-04
  1.84266934142166656E-04  1.91301412587670114E-04  1.98604258717175299E-04
  2.06185699437716707E-04  2.14056350645431566E-04  2.22227231973584220E-04
  2.30709782096671961E-04  2.39515874611382110E-04  2.48657834515932975E-04
  2.58148455310116089E-04  2.68001016739184662E-04  2.78229303205569656E-04
  2.88847622873288003E-04  2.99870827490817445E-04  3.11314332959142389E-04
  3.23194140672664282E-04  3.35526859661658264E-04  3.48329729566015001E-04
  3.61620644471082563E-04  3.75418177637529445E-04  3.89741607158318828E-04
  4.04610942577072455E-04  4.20046952503332375E-04  4.36071193261525875E-04
  4.52706038611738087E-04  4.69974710581782661E-04  4.87901311451470574E-04
  5.06510856931431143E-04  5.25829310580366014E-04  5.45883619506164295E-04
  5.66701751397937327E-04  5.88312732937685276E-04  6.10746689642048448E-04
  6.34034887186362252E-04  6.58209774265092998E-04  6.83305027044613772E-04
  7.09355595266261793E-04  7.36397750059632097E-04  7.64469133528158300E-04
  7.93608810171202378E-04  8.23857320209086131E-04  8.55256734879809117E-04
  8.87850713778573497E-04  9.21684564313670534E-04  9.56805303354824142E-04
  9.93261721152664985E-04  1.03110444761072661E-03  1.07038602099406976E-03
  1.11116095916153983E-03  1.15348583341157011E-03  1.19741934503445123E-03
  1.24302240466711003E-03  1.29035821454965703E-03  1.33949235378621459E-03
  1.39049286671596799E-03  1.44343035450382440E-03  1.49837807006367651E-03
  1.55541201643092015E-03  1.61461104870467263E-03  1.67605697968400123E-03
  1.73983468932646808E-03  1.80603223816137707E-03  1.87474098479428796E-03
  1.94605570764367860E-03  2.02007473105502832E-03  2.09690005594209304E-03
  2.17663749510976995E-03  2.25939681341766471E-03  2.34529187294831411E-03
  2.43444078334891130E-03  2.52696605752046870E-03  2.62299477283346565E-03
  2.72265873805425853E-03  2.82609466617190835E-03  2.93344435332048908E-03
  3.04485486399751985E-03  3.16047872278469796E-03  3.28047411278296419E-03
  3.40500508097959327E-03  3.53424175077095932E-03  3.66836054187055349E-03
  3.80754439783783380E-03  3.95198302146956056E-03  4.10187311830131646E-03
  4.25741864847329222E-03  4.41883108722051013E-03  4.58632969425367808E-03
  4.76014179230328013E-03  4.94050305510565849E-03  5.12765780511609346E-03
  5.32185932123991484E-03  5.52337015687892532E-03  5.73246246859623713E-03
  5.94941835570877292E-03  6.17453021112221098E-03  6.40810108372904738E-03
  6.65044505269576404E-03  6.90188761397035524E-03  7.16276607934664133E-03
  7.43342998842635647E-03  7.71424153382454549E-03  8.00557599996794267E-03
  8.30782221583956440E-03  8.62138302202614115E-03  8.94667575242763698E-03
  9.28413273099043014E-03  9.63420178382728802E-03  9.99734676708810381E-03
  1.03740481109456766E-02  1.07648033800601620E-02  1.11701278508841567E-02
  1.15905551061681027E-02  1.20266376470219531E-02  1.24789475228843597E-02
  1.29480769797444238E-02  1.34346391269533488E-02  1.39392686229576207E-02
  1.44626223802702108E-02  1.50053802899861137E-02  1.55682459661349911E-02
  1.61519475101467649E-02  1.67572382956881274E-02  1.73848977741067959E-02
  1.80357323006973963E-02  1.87105759819765662E-02  1.94102915441261951E-02
  2.01357712227312885E-02  2.08879376739034839E-02  2.16677449068425031E-02
  2.24761792378438650E-02  2.33142602657149950E-02  2.41830418685093501E-02
  2.50836132214323770E-02  2.60170998357108427E-02  2.69846646181511052E-02
  2.79875089510381800E-02  2.90268737919493758E-02  3.01040407929700354E-02
  3.12203334387075454E-02  3.23771182023987539E-02  3.35758057192990719E-02
  3.48178519764253194E-02  3.61047595175990124E-02  3.74380786626014664E-02
  3.88194087391040416E-02  4.02503993259046081E-02  4.17327515058045009E-02
  4.32682191262954152E-02  4.48586100660366416E-02  4.65057875048990113E-02
  4.82116711951337332E-02  4.99782387309921916E-02  5.18075268138756401E-02
  5.37016325098297262E-02  5.56627144959179962E-02  5.76929942917101882E-02
  5.97947574718030450E-02  6.19703548549545707E-02  6.42222036650542533E-02
  6.65527886587722328E-02  6.89646632143285088E-02  7.14604503753962783E-02
  7.40428438437043396E-02  7.67146089134258524E-02  7.94785833399376807E-02
  8.23376781350048242E-02  8.52948782798828159E-02  8.83532433472425521E-02
  9.15159080222007482E-02  9.47860825120854511E-02  9.81670528338827730E-02
  1.01662180967571958E-01  1.05274904862816182E-01  1.09008738285770956E-01
  1.12867270491778568E-01  1.16854165708950464E-01  1.20973162416732088E-01
  1.25228072402596119E-01  1.29622779579030761E-01  1.34161238541972289E-01
  1.38847472850771869E-01  1.43685573008696360E-01  1.48679694121820777E-01
  1.53834053213004696E-01  1.59152926166435060E-01  1.64640644276971282E-01
  1.70301590377254147E-01  1.76140194514230908E-01  1.82160929145407741E-01
  1.88368303823781669E-01  1.94766859339012777E-01  2.01361161280998985E-01
  2.08155792990592725E-01  2.15155347860779639E-01  2.22364420950210723E-01
  2.29787599869564235E-01  2.37429454899807907E-01  2.45294528300057352E-01
  2.53387322761305323E-01  2.61712288961100548E-01  2.70273812173313421E-01
  2.79076197885294253E-01  2.88123656374102921E-01  2.97420286192486505E-01
  3.06970056514432932E-01  3.16776788289456435E-01  3.26844134154286980E-01
  3.37175557050339914E-01  3.47774307495300417E-01  3.58643399457365175E-01
  3.69785584781197718E-01  3.81203326115510277E-01  3.92898768293413081E-01
  4.04873708118326736E-01  4.17129562510378471E-01  4.29667334970850190E-01
  4.42487580325467644E-01  4.55590367711178668E-01  4.68975241775625495E-01
  4.82641182063838659E-01  4.96586560572837343E-01  5.10809097461896733E-01
  5.25305814914300395E-01  5.40072989155549577E-01  5.55106100643243727E-01
  5.70399782455248916E-01  5.85947766916764090E-01  6.01742830519885308E-01
  6.17776737205611548E-01  6.34040180096193451E-01  6.50522721784998814E-01
  6.67212733312334438E-01  6.84097331979033996E-01  7.01162318175049371E-01
  7.18392111428014513E-01  7.35769685906832005E-01  7.53276505647865080E-01
  7.70892459806485464E-01  7.88595798274561499E-01  8.06363068045058085E-01
  8.24169050748463583E-01  8.41986701832126760E-01  8.59787091903066236E-01
  8.77539350807238216E-01  8.95210615073749771E-01  9.12765979411060080E-01
  9.30168453003676232E-01  9.47378921422293852E-01  9.64356115027480643E-01
  9.81056584816751509E-01  9.97434686737190379E-01  1.01344257556089667E+00
  1.02903020949266777E+00  1.04414536675990988E+00  1.05873367551253095E+00
  1.07273865843713012E+00  1.08610179356738157E+00  1.09876259284817968E+00
  1.11065870008415923E+00  1.12172600997258431E+00  1.13189880998500203E+00
  1.14110994691996370E+00  1.14929101999897720E+00  1.15637260241769702E+00
  1.16228449329230421E+00  1.16695600195466564E+00  1.17031626654680343E+00
  1.17229460884270553E+00  1.17282092718060715E+00  1.17182612931834185E+00
  1.16924260692480653E+00  1.16500475328822817E+00  1.15904952565287700E+00
  1.15131705338593759E+00  1.14175129292103184E+00  1.13030073011983823E+00
  1.11691913033762646E+00  1.10156633605941523E+00  1.08420911145645160E+00
  1.06482203271630804E+00  1.04338842234293905E+00  1.01990132491702634E+00
  9.94364521020712488E-01  9.66793575154328622E-01  9.37216912505330457E-01
  9.05676918368735206E-01  8.72231052861950795E-01  8.36952972324323752E-01
  7.99933647443537565E-01  7.61282466709595762E-01  7.21128312266372307E-01
  6.79620593617492497E-01  6.36930222956099579E-01  5.93250514139394780E-01
  5.48797985533611254E-01  5.03813045132763926E-01  4.58560534528348385E-01
  4.13330106505097772E-01  3.68436409293295575E-01  3.24219048859412162E-01
  2.81042299108687055E-01  2.39294528556386055E-01  1.99387310943992258E-01
  1.61754186540105205E-01  1.26849040518005052E-01  9.51440648472523798E-02
  6.71272707329460400E-02  4.32995187931843953E-02  2.41710178914073051E-02
  1.02569554319313968E-02  2.06738508386521136E-03 -3.91863804354288469E-05
 -2.81011408666143962E-06 -1.98590339113616492E-07 -1.38329557083167316E-08
 -9.49416331869137848E-10 -6.41536221270560566E-11 -4.26171151912274937E-12
 -2.77703078062126830E-13 -1.76914531210083143E-14 -1.09632370707042141E-15
 -6.55623067575157620E-17 -3.73335091771298273E-18 -1.97411021426386732E-19
 -9.16059982907810468E-21 -3.10442225181512198E-22  1.08215187364446004E-24
  1.60347958284435694E-24  2.13251859753158152E-25  2.15408210781559339E-26
  1.93583579491965570E-27  1.62819088318582134E-28  1.31099739096778840E-29
  1.02272088581031444E-30  7.78405579582268920E-32  5.80528282738685771E-33
  4.25397664575680473E-34  3.06801743602468134E-35  0.00000000000000000E+00
  0.00000000000000000E+00  0.00000000000000000E+00  0.00000000000000000E+00
  0.00000000000000000E+00  0.00000000000000000E+00  0.00000000000000000E+00
  0.00000000000000000E+00  0.00000000000000000E+00  0.00000000000000000E+00
  0.00000000000000000E+00  0.00000000000000000E+00  0.00000000000000000E+00
  0.00000000000000000E+00  0.00000000000000000E+00  0.00000000000000000E+00
  0.00000000000000000E+00  0.00000000000000000E+00  0.00000000000000000E+00
  0.00000000000000000E+00  0.00000000000000000E+00  0.00000000000000000E+00
  0.00000000000000000E+00  0.00000000000000000E+00  0.00000000000000000E+00
  0.00000000000000000E+00  0.00000000000000000E+00  0.00000000000000000E+00
  0.00000000000000000E+00  0.00000000000000000E+00  0.00000000000000000E+00
  0.00000000000000000E+00  0.00000000000000000E+00  0.00000000000000000E+00
  0.00000000000000000E+00  0.00000000000000000E+00  0.00000000000000000E+00
  0.00000000000000000E+00  0.00000000000000000E+00  0.00000000000000000E+00
  0.00000000000000000E+00  0.00000000000000000E+00  0.00000000000000000E+00
  0.00000000000000000E+00  0.00000000000000000E+00  0.00000000000000000E+00
  0.00000000000000000E+00  0.00000000000000000E+00  0.00000000000000000E+00
  0.00000000000000000E+00  0.00000000000000000E+00  0.00000000000000000E+00
  0.00000000000000000E+00  0.00000000000000000E+00  0.00000000000000000E+00
  0.00000000000000000E+00  0.00000000000000000E+00  0.00000000000000000E+00
  0.00000000000000000E+00  0.00000000000000000E+00  0.00000000000000000E+00
  0.00000000000000000E+00  0.00000000000000000E+00  0.00000000000000000E+00
  0.00000000000000000E+00  0.00000000000000000E+00  0.00000000000000000E+00
  0.00000000000000000E+00  0.00000000000000000E+00  0.00000000000000000E+00
  0.00000000000000000E+00  0.00000000000000000E+00  0.00000000000000000E+00
  0.00000000000000000E+00  0.00000000000000000E+00  0.00000000000000000E+00
  0.00000000000000000E+00  0.00000000000000000E+00  0.00000000000000000E+00
  0.00000000000000000E+00  0.00000000000000000E+00  0.00000000000000000E+00
  0.00000000000000000E+00  0.00000000000000000E+00  0.00000000000000000E+00
  0.00000000000000000E+00  0.00000000000000000E+00  0.00000000000000000E+00
  0.00000000000000000E+00  0.00000000000000000E+00  0.00000000000000000E+00
  0.00000000000000000E+00  0.00000000000000000E+00  0.00000000000000000E+00
  0.00000000000000000E+00  0.00000000000000000E+00  0.00000000000000000E+00
  0.00000000000000000E+00  0.00000000000000000E+00  0.00000000000000000E+00
  0.00000000000000000E+00  0.00000000000000000E+00  0.00000000000000000E+00
  0.00000000000000000E+00  0.00000000000000000E+00  0.00000000000000000E+00
  0.00000000000000000E+00  0.00000000000000000E+00  0.00000000000000000E+00
  0.00000000000000000E+00  0.00000000000000000E+00  0.00000000000000000E+00
  0.00000000000000000E+00  0.00000000000000000E+00  0.00000000000000000E+00
  0.00000000000000000E+00  0.00000000000000000E+00  0.00000000000000000E+00
  0.00000000000000000E+00  0.00000000000000000E+00  0.00000000000000000E+00
  0.00000000000000000E+00  0.00000000000000000E+00  0.00000000000000000E+00
  0.00000000000000000E+00  0.00000000000000000E+00  0.00000000000000000E+00
  0.00000000000000000E+00  0.00000000000000000E+00  0.00000000000000000E+00
  0.00000000000000000E+00  0.00000000000000000E+00  0.00000000000000000E+00
  0.00000000000000000E+00  0.00000000000000000E+00  0.00000000000000000E+00
  0.00000000000000000E+00  0.00000000000000000E+00  0.00000000000000000E+00
  0.00000000000000000E+00  0.00000000000000000E+00  0.00000000000000000E+00
  0.00000000000000000E+00  0.00000000000000000E+00  0.00000000000000000E+00
  0.00000000000000000E+00  0.00000000000000000E+00  0.00000000000000000E+00
  0.00000000000000000E+00  0.00000000000000000E+00  0.00000000000000000E+00
  0.00000000000000000E+00  0.00000000000000000E+00  0.00000000000000000E+00
  0.00000000000000000E+00  0.00000000000000000E+00  0.00000000000000000E+00
  0.00000000000000000E+00  0.00000000000000000E+00  0.00000000000000000E+00
  0.00000000000000000E+00  0.00000000000000000E+00  0.00000000000000000E+00
                       </PP_QIJL.2.4.1>
 <PP_QIJL.3.3.0 type="real" size="   999" columns="3" first_index=" 3" second_index=" 3" composite_index=" 6" angular_momentum="0">
 -1.20795220501853851E-09 -1.23853166050570309E-09 -1.26988523858535069E-09
 -1.30203253626375860E-09 -1.33499364664776173E-09 -1.36878917150359040E-09
 -1.40344023413364781E-09 -1.43896849257925145E-09 -1.47539615315761424E-09
 -1.51274598434153112E-09 -1.55104133099038726E-09 -1.59030612894146192E-09
 -1.63056491997061089E-09 -1.67184286713166712E-09 -1.71416577048416811E-09
 -1.75756008321922153E-09 -1.80205292819362389E-09 -1.84767211488250779E-09
 -1.89444615676117107E-09 -1.94240428912694572E-09 -1.99157648737216976E-09
 -2.04199348571979935E-09 -2.09368679643330003E-09 -2.14668872951281801E-09
 -2.20103241288999120E-09 -2.25675181313397236E-09 -2.31388175668163455E-09
 -2.37245795160522221E-09 -2.43251700993106185E-09 -2.49409647052326132E-09
 -2.55723482254670199E-09 -2.62197152952404005E-09 -2.68834705400165415E-09
 -2.75640288284006851E-09 -2.82618155314459486E-09 -2.89772667885235863E-09
 -2.97108297799246500E-09 -3.04629630063618644E-09 -3.12341365755474393E-09
 -3.20248324960259358E-09 -3.28355449784445716E-09 -3.36667807444514255E-09
 -3.45190593434125457E-09 -3.53929134771470935E-09 -3.62888893328836373E-09
 -3.72075469246440556E-09 -3.81494604432710677E-09 -3.91152186153156809E-09
 -4.01054250710104122E-09 -4.11206987215579179E-09 -4.21616741459699150E-09
 -4.32290019877001437E-09 -4.43233493613170291E-09 -4.54454002694722091E-09
 -4.65958560304240780E-09 -4.77754357163842601E-09 -4.89848766029609264E-09
 -5.02249346299800136E-09 -5.14963848739716671E-09 -5.28000220326185010E-09
 -5.41366609214666866E-09 -5.55071369832122381E-09 -5.69123068098795943E-09
 -5.83530486782189684E-09 -5.98302630986581359E-09 -6.13448733781496242E-09
 -6.28978261972678251E-09 -6.44900922019145394E-09 -6.61226666100038351E-09
 -6.77965698335056075E-09 -6.95128481162351993E-09 -7.12725741877898437E-09
 -7.30768479340388190E-09 -7.49267970845875073E-09 -7.68235779176447614E-09
 -7.87683759827334766E-09 -8.07624068416970657E-09 -8.28069168284649342E-09
 -8.49031838280505168E-09 -8.70525180752710044E-09 -8.92562629736853331E-09
 -9.15157959352645788E-09 -9.38325292413188588E-09 -9.62079109252173488E-09
 -9.86434256774566519E-09 -1.01140595773638580E-08 -1.03700982025941404E-08
 -1.06326184758677393E-08 -1.09017844808545968E-08 -1.11777644550209891E-08
 -1.14607308947831864E-08 -1.17508606633232359E-08 -1.20483351011341100E-08
 -1.23533401393632116E-08 -1.26660664160253426E-08 -1.29867093951573993E-08
 -1.33154694889896482E-08 -1.36525521832097054E-08 -1.39981681653976152E-08
 -1.43525334567123082E-08 -1.47158695469114927E-08 -1.50884035327899097E-08
 -1.54703682601219325E-08 -1.58620024691974806E-08 -1.62635509440423847E-08
 -1.66752646654159149E-08 -1.70974009676817619E-08 -1.75302236996500652E-08
 -1.79740033894912266E-08 -1.84290174138245882E-08 -1.88955501710873358E-08
 -1.93738932592925422E-08 -1.98643456582870463E-08 -2.03672139166231871E-08
 -2.08828123431612823E-08 -2.14114632035223445E-08 -2.19534969215142028E-08
 -2.25092522856566875E-08 -2.30790766609349801E-08 -2.36633262059135171E-08
 -2.42623660953460784E-08 -2.48765707484213983E-08 -2.55063240627866523E-08
 -2.61520196544954374E-08 -2.68140611040299800E-08 -2.74928622085511872E-08
 -2.81888472405347512E-08 -2.89024512129544470E-08 -2.96341201511785507E-08
 -3.03843113717495116E-08 -3.11534937682204981E-08 -3.19421481042283471E-08
 -3.27507673139855134E-08 -3.35798568103788677E-08 -3.44299348008680668E-08
 -3.53015326113812051E-08 -3.61951950184091429E-08 -3.71114805895076092E-08
 -3.80509620324186199E-08 -3.90142265530299822E-08 -4.00018762223969011E-08
 -4.10145283530539820E-08 -4.20528158848543349E-08 -4.31173877805756910E-08
 -4.42089094315414588E-08 -4.53280630735102945E-08 -4.64755482130931874E-08
 -4.76520820649661451E-08 -4.88584000001502639E-08 -5.00952560056402287E-08
 -5.13634231556685561E-08 -5.26636940948991322E-08 -5.39968815338534955E-08
 -5.53638187568784332E-08 -5.67653601429726976E-08 -5.82023816997989801E-08
 -5.96757816112132812E-08 -6.11864807986559677E-08 -6.27354234967538653E-08
 -6.43235778434936614E-08 -6.59519364853361277E-08 -6.76215171976474387E-08
 -6.93333635208379217E-08 -7.10885454126040020E-08 -7.28881599166813480E-08
 -7.47333318485284844E-08 -7.66252144983665864E-08 -7.85649903520182960E-08
 -8.05538718299935591E-08 -8.25931020452856933E-08 -8.46839555803509514E-08
 -8.68277392837565613E-08 -8.90257930869964076E-08 -9.12794908419843235E-08
 -9.35902411797474923E-08 -9.59594883908592135E-08 -9.83887133281572923E-08
 -1.00879434332316422E-07 -1.03433208180850346E-07 -1.06051631061138045E-07
 -1.08736339568082128E-07 -1.11489011727021759E-07 -1.14311368042541127E-07
 -1.17205172573828371E-07 -1.20172234037255686E-07 -1.23214406936873124E-07
 -1.26333592723517730E-07 -1.29531740983267352E-07 -1.32810850655978812E-07
 -1.36172971284672645E-07 -1.39620204296547215E-07 -1.43154704316418818E-07
 -1.46778680513412581E-07 -1.50494397981743964E-07 -1.54304179156454255E-07
 -1.58210405264985627E-07 -1.62215517815499231E-07 -1.66322020122873079E-07
 -1.70532478873327836E-07 -1.74849525728660415E-07 -1.79275858971089430E-07
 -1.83814245189735906E-07 -1.88467521009800595E-07 -1.93238594865510346E-07
 -1.98130448817948773E-07 -2.03146140418903707E-07 -2.08288804621893731E-07
 -2.13561655741575819E-07 -2.18967989462751138E-07 -2.24511184900227751E-07
 -2.30194706710830258E-07 -2.36022107258867892E-07 -2.41997028836425278E-07
 -2.48123205939856436E-07 -2.54404467603903951E-07 -2.60844739794910706E-07
 -2.67448047864606114E-07 -2.74218519066013676E-07 -2.81160385133045349E-07
 -2.88277984925393107E-07 -2.95575767140380201E-07 -3.03058293093451680E-07
 -3.10730239569057272E-07 -3.18596401743699720E-07 -3.26661696182974151E-07
 -3.34931163914482001E-07 -3.43409973578521158E-07 -3.52103424658543886E-07
 -3.61016950793381391E-07 -3.70156123173319080E-07 -3.79526654022139426E-07
 -3.89134400167301995E-07 -3.98985366700506226E-07 -4.09085710730912004E-07
 -4.19441745233369150E-07 -4.30059942994061961E-07 -4.40946940656026387E-07
 -4.52109542867079540E-07 -4.63554726532746120E-07 -4.75289645176838297E-07
 -4.87321633412424465E-07 -4.99658211525963293E-07 -5.12307090177484576E-07
 -5.25276175219746443E-07 -5.38573572639380039E-07 -5.52207593623109726E-07
 -5.66186759752216938E-07 -5.80519808328493622E-07 -5.95215697835003928E-07
 -6.10283613535089625E-07 -6.25732973213084972E-07 -6.41573433060360739E-07
 -6.57814893710351794E-07 -6.74467506426349729E-07 -6.91541679445933372E-07
 -7.09048084485978004E-07 -7.26997663412342499E-07 -7.45401635078366422E-07
 -7.64271502336475788E-07 -7.83619059227273233E-07 -8.03456398350585169E-07
 -8.23795918423108171E-07 -8.44650332027337852E-07 -8.66032673556648336E-07
 -8.87956307361484455E-07 -9.10434936101732143E-07 -9.33482609310522655E-07
 -9.57113732174792618E-07 -9.81343074538090602E-07 -1.00618578013127579E-06
 -1.03165737603684442E-06 -1.05777378239282025E-06 -1.08455132234225953E-06
 -1.11200673223460056E-06 -1.14015717208520810E-06 -1.16902023629966827E-06
 -1.19861396466953411E-06 -1.22895685364635928E-06 -1.26006786790111094E-06
 -1.29196645217615738E-06 -1.32467254343721133E-06 -1.35820658333287614E-06
 -1.39258953096953058E-06 -1.42784287600954776E-06 -1.46398865210104002E-06
 -1.50104945064750176E-06 -1.53904843492597276E-06 -1.57800935456249956E-06
 -1.61795656037400229E-06 -1.65891501958576105E-06 -1.70091033143403364E-06
 -1.74396874316358701E-06 -1.78811716643009420E-06 -1.83338319411766803E-06
 -1.87979511758200730E-06 -1.92738194432995248E-06 -1.97617341614649514E-06
 -2.02620002768051682E-06 -2.07749304550091674E-06 -2.13008452763501174E-06
 -2.18400734360139363E-06 -2.23929519494978527E-06 -2.29598263632066743E-06
 -2.35410509703790113E-06 -2.41369890324778616E-06 -2.47480130061836037E-06
 -2.53745047761315877E-06 -2.60168558935392312E-06 -2.66754678208720708E-06
 -2.73507521827011666E-06 -2.80431310229084006E-06 -2.87530370684006009E-06
 -2.94809139994968701E-06 -3.02272167271581371E-06 -3.09924116772318344E-06
 -3.17769770818888435E-06 -3.25814032784353984E-06 -3.34061930156856141E-06
 -3.42518617680867049E-06 -3.51189380577922930E-06 -3.60079637848849289E-06
 -3.69194945659542563E-06 -3.78541000812417851E-06 -3.88123644305692777E-06
 -3.97948864982725768E-06 -4.08022803273683942E-06 -4.18351755031880560E-06
 -4.28942175467173598E-06 -4.39800683178876383E-06 -4.50934064290706472E-06
 -4.62349276690335819E-06 -4.74053454376205799E-06 -4.86053911914303804E-06
 -4.98358149007687460E-06 -5.10973855181613673E-06 -5.23908914587179115E-06
 -5.37171410926483078E-06 -5.50769632502377782E-06 -5.64712077395949814E-06
 -5.79007458774976147E-06 -5.93664710336647338E-06 -6.08692991887967719E-06
 -6.24101695067302603E-06 -6.39900449210636854E-06 -6.56099127366215398E-06
 -6.72707852461294264E-06 -6.89737003624867232E-06 -7.07197222670297557E-06
 -7.25099420741891832E-06 -7.43454785129573369E-06 -7.62274786255880380E-06
 -7.81571184839658270E-06 -8.01356039240911874E-06 -8.21641712991367284E-06
 -8.42440882515476426E-06 -8.63766545046628162E-06 -8.85632026743536748E-06
 -9.08050991011836722E-06 -9.31037447036072483E-06 -9.54605758527402590E-06
 -9.78770652692449799E-06 -1.00354722942890029E-05 -1.02895097075355909E-05
 -1.05499775046873625E-05 -1.08170384407298303E-05 -1.10908593892233710E-05
 -1.13716114464840987E-05 -1.16594700383979266E-05 -1.19546150299341427E-05
 -1.22572308374268878E-05 -1.25675065436940614E-05 -1.28856360160654309E-05
 -1.32118180273933779E-05 -1.35462563801212112E-05 -1.38891600334865663E-05
 -1.42407432339386195E-05 -1.46012256488503211E-05 -1.49708325036087818E-05
 -1.53497947221687070E-05 -1.57383490711565837E-05 -1.61367383076146598E-05
 -1.65452113304768658E-05 -1.69640233358704663E-05 -1.73934359763398358E-05
 -1.78337175240914360E-05 -1.82851430383608582E-05 -1.87479945370061908E-05
 -1.92225611724338932E-05 -1.97091394119662654E-05 -2.02080332227625845E-05
 -2.07195542614081113E-05 -2.12440220682890045E-05 -2.17817642668731327E-05
 -2.23331167680203774E-05 -2.28984239794491679E-05 -2.34780390204885254E-05
 -2.40723239422489842E-05 -2.46816499533485706E-05 -2.53063976513329345E-05
 -2.59469572599339673E-05 -2.66037288723123176E-05 -2.72771227004350716E-05
 -2.79675593307425414E-05 -2.86754699862618385E-05 -2.94012967953295326E-05
 -3.01454930670890977E-05 -3.09085235739333435E-05 -3.16908648410661151E-05
 -3.24930054433618008E-05 -3.33154463097059915E-05 -3.41587010350045630E-05
 -3.50232962000538844E-05 -3.59097716994689119E-05 -3.68186810778711965E-05
 -3.77505918745439669E-05 -3.87060859767661170E-05 -3.96857599820426061E-05
 -4.06902255694540778E-05 -4.17201098803536091E-05 -4.27760559086451435E-05
 -4.38587229008823224E-05 -4.49687867664344391E-05 -4.61069404979700057E-05
 -4.72738946025169090E-05 -4.84703775433625213E-05 -4.96971361930649387E-05
 -5.09549362978525502E-05 -5.22445629536963171E-05 -5.35668210943460136E-05
 -5.49225359916283396E-05 -5.63125537683131186E-05 -5.77377419238605906E-05
 -5.91989898733705051E-05 -6.06972095000617197E-05 -6.22333357216194348E-05
 -6.38083270707544146E-05 -6.54231662903282280E-05 -6.70788609434057163E-05
 -6.87764440386067264E-05 -7.05169746711355221E-05 -7.23015386798782215E-05
 -7.41312493209659711E-05 -7.60072479582122505E-05 -7.79307047708431469E-05
 -7.99028194789474231E-05 -8.19248220870862548E-05 -8.39979736465110063E-05
 -8.61235670364495214E-05 -8.83029277649316209E-05 -9.05374147896366292E-05
 -9.28284213592560933E-05 -9.51773758758791823E-05 -9.75857427789162904E-05
 -1.00055023451093759E-04 -1.02586757147060811E-04 -1.05182521945165457E-04
 -1.07843935722968447E-04 -1.10572657157077762E-04 -1.13370386747900571E-04
 -1.16238867869923016E-04 -1.19179887848142139E-04 -1.22195279061291726E-04
 -1.25286920072514006E-04 -1.28456736788151070E-04 -1.31706703645338030E-04
 -1.35038844829103326E-04 -1.38455235519691967E-04 -1.41958003170848240E-04
 -1.45549328819810137E-04 -1.49231448429783752E-04 -1.53006654265686488E-04
 -1.56877296303963633E-04 -1.60845783677302884E-04 -1.64914586155089147E-04
 -1.69086235660463081E-04 -1.73363327824862932E-04 -1.77748523580954342E-04
 -1.82244550794867911E-04 -1.86854205938689520E-04 -1.91580355804166842E-04
 -1.96425939258617705E-04 -2.01393969044049093E-04 -2.06487533620517365E-04
 -2.11709799054781003E-04 -2.17064010955326213E-04 -2.22553496454860764E-04
 -2.28181666241404916E-04 -2.33952016639124756E-04 -2.39868131740084188E-04
 -2.45933685588113128E-04 -2.52152444416016799E-04 -2.58528268937378771E-04
 -2.65065116694233524E-04 -2.71767044461913279E-04 -2.78638210712403578E-04
 -2.85682878137563689E-04 -2.92905416233604429E-04 -3.00310303948235805E-04
 -3.07902132391933876E-04 -3.15685607614801258E-04 -3.23665553450523907E-04
 -3.31846914428964360E-04 -3.40234758758952067E-04 -3.48834281382871716E-04
 -3.57650807104675729E-04 -3.66689793792979548E-04 -3.75956835660934863E-04
 -3.85457666624598207E-04 -3.95198163741559245E-04 -4.05184350731609339E-04
 -4.15422401581277219E-04 -4.25918644234085902E-04 -4.36679564368416134E-04
 -4.47711809264903459E-04 -4.59022191765317829E-04 -4.70617694324918141E-04
 -4.82505473160306226E-04 -4.94692862494831875E-04 -5.07187378903641841E-04
 -5.19996725760498791E-04 -5.33128797788520151E-04 -5.46591685717039057E-04
 -5.60393681046798126E-04 -5.74543280925742688E-04 -5.89049193137700187E-04
 -6.03920341206261140E-04 -6.19165869616224922E-04 -6.34795149154983892E-04
 -6.50817782376268738E-04 -6.67243609188690576E-04 -6.84082712571561463E-04
 -7.01345424420483704E-04 -7.19042331525246415E-04 -7.37184281682571143E-04
 -7.55782389946293987E-04 -7.74848045017577629E-04 -7.94392915777776521E-04
 -8.14428957966600864E-04 -8.34968421008235712E-04 -8.56023854988087734E-04
 -8.77608117782858218E-04 -8.99734382346631801E-04 -9.22416144155704314E-04
 -9.45667228814848658E-04 -9.69501799827756109E-04 -9.93934366534359208E-04
 -1.01897979221775726E-03 -1.04465330238345680E-03 -1.07097049321362302E-03
 -1.09794734019901430E-03 -1.12560020695128514E-03 -1.15394585419827762E-03
 -1.18300144896491531E-03 -1.21278457394227972E-03 -1.24331323704739366E-03
 -1.27460588117620020E-03 -1.30668139415217430E-03 -1.33955911887292316E-03
 -1.37325886365709119E-03 -1.40780091279378789E-03 -1.44320603729667209E-03
 -1.47949550586474630E-03 -1.51669109605180033E-03 -1.55481510564631979E-03
 -1.59389036426357258E-03 -1.63394024515142646E-03 -1.67498867721132226E-03
 -1.71706015723564363E-03 -1.76017976236256908E-03 -1.80437316274928688E-03
 -1.84966663446425763E-03 -1.89608707259897899E-03 -1.94366200459946781E-03
 -1.99241960381744965E-03 -2.04238870328088970E-03 -2.09359880968331465E-03
 -2.14608011759095420E-03 -2.19986352386645047E-03 -2.25498064230750814E-03
 -2.31146381849845449E-03 -2.36934614487227871E-03 -2.42866147598024993E-03
 -2.48944444396581154E-03 -2.55173047423885207E-03 -2.61555580134598988E-03
 -2.68095748503189169E-03 -2.74797342648606729E-03 -2.81664238476893834E-03
 -2.88700399341027328E-03 -2.95909877717239790E-03 -3.03296816896976790E-03
 -3.10865452693573612E-03 -3.18620115162641677E-03 -3.26565230335070780E-03
 -3.34705321961451538E-03 -3.43045013266619599E-03 -3.51589028712921692E-03
 -3.60342195770681521E-03 -3.69309446694225055E-03 -3.78495820301703997E-03
 -3.87906463756809358E-03 -3.97546634350338154E-03 -4.07421701279415873E-03
 -4.17537147422028260E-03 -4.27898571104343584E-03 -4.38511687858135664E-03
 -4.49382332165429877E-03 -4.60516459187307239E-03 -4.71920146473586450E-03
 -4.83599595649902847E-03 -4.95561134078466997E-03 -5.07811216488552371E-03
 -5.20356426572513280E-03 -5.33203478542865900E-03 -5.46359218645718452E-03
 -5.59830626625510298E-03 -5.73624817135734346E-03 -5.87749041090008650E-03
 -6.02210686947515176E-03 -6.17017281926495430E-03 -6.32176493139106812E-03
 -6.47696128640581729E-03 -6.63584138385219045E-03 -6.79848615081327708E-03
 -6.96497794936804405E-03 -7.13540058286565252E-03 -7.30983930092589124E-03
 -7.48838080306815125E-03 -7.67111324086631498E-03 -7.85812621852144573E-03
 -8.04951079173856464E-03 -8.24535946478778189E-03 -8.44576618562416920E-03
 -8.65082633893406866E-03 -8.86063673696913315E-03 -9.07529560802228762E-03
 -9.29490258239283607E-03 -9.51955867568016548E-03 -9.74936626923804742E-03
 -9.98442908761328594E-03 -1.02248521727842084E-02 -1.04707418550056969E-02
 -1.07222057200584663E-02 -1.09793525726919923E-02 -1.12422923960393377E-02
 -1.15111363067731433E-02 -1.17859965057615767E-02 -1.20669862239725992E-02
 -1.23542196633640178E-02 -1.26478119324855160E-02 -1.29478789765074230E-02
 -1.32545375013790670E-02 -1.35679048918074842E-02 -1.38880991227348354E-02
 -1.42152386639800201E-02 -1.45494423776971454E-02 -1.48908294082900350E-02
 -1.52395190644085566E-02 -1.55956306926387477E-02 -1.59592835424846591E-02
 -1.63305966222258049E-02 -1.67096885452197273E-02 -1.70966773662045990E-02
 -1.74916804071425860E-02 -1.78948140721297833E-02 -1.83061936508842026E-02
 -1.87259331103087276E-02 -1.91541448736114797E-02 -1.95909395864520448E-02
 -2.00364258695674355E-02 -2.04907100573187527E-02 -2.09538959215879901E-02
 -2.14260843804379639E-02 -2.19073731909386130E-02 -2.23978566255516910E-02
 -2.28976251314552022E-02 -2.34067649721795869E-02 -2.39253578509194161E-02
 -2.44534805148774875E-02 -2.49912043399932240E-02 -2.55385948954029406E-02
 -2.60957114869784651E-02 -2.66626066792907783E-02 -2.72393257953480565E-02
 -2.78259063934630339E-02 -2.84223777206131824E-02 -2.90287601416683236E-02
 -2.96450645438760887E-02 -3.02712917160142155E-02 -3.09074317016423683E-02
 -3.15534631259139983E-02 -3.22093524954421215E-02 -3.28750534707512657E-02
 -3.35505061108930802E-02 -3.42356360898537423E-02 -3.49303538844403932E-02
 -3.56345539333989131E-02 -3.63481137675911309E-02 -3.70708931111419435E-02
 -3.78027329535583420E-02 -3.85434545929267541E-02 -3.92928586504094415E-02
 -4.00507240563856698E-02 -4.08168070087225679E-02 -4.15908399038121684E-02
 -4.23725302411773544E-02 -4.31615595026310084E-02 -4.39575820071707313E-02
 -4.47602237430055130E-02 -4.55690811783448918E-02 -4.63837200528321031E-02
 -4.72036741517764813E-02 -4.80284440656325792E-02 -4.88574959374909745E-02
 -4.96902602016840861E-02 -5.05261303169748585E-02 -5.13644614981851877E-02
 -5.22045694505373983E-02 -5.30457291114252300E-02 -5.38871734048031251E-02
 -5.47280920138836988E-02 -5.55676301783655166E-02 -5.64048875229771554E-02
 -5.72389169247318752E-02 -5.80687234268565250E-02 -5.88932632080775287E-02
 -5.97114426166277384E-02 -6.05221172790425047E-02 -6.13240912945774500E-02
 -6.21161165268645232E-02 -6.28968920052412894E-02 -6.36650634490322220E-02
 -6.44192229289346219E-02 -6.51579086805591373E-02 -6.58796050860935983E-02
 -6.65827428409982297E-02 -6.72656993235941497E-02 -6.79267991863676118E-02
 -6.85643151887844887E-02 -6.91764692923706181E-02 -6.97614340397747362E-02
 -7.03173342404669055E-02 -7.08422489866384064E-02 -7.13342140237446659E-02
 -7.17912245009550837E-02 -7.22112381275375054E-02 -7.25921787618875325E-02
 -7.29319404605018040E-02 -7.32283920146882539E-02 -7.34793820032308698E-02
 -7.36827443890313433E-02 -7.38363046882017371E-02 -7.39378867398052808E-02
 -7.39853201038873365E-02 -7.39764481148052211E-02 -7.39091366158820678E-02
 -7.37812834000962509E-02 -7.35908283798364787E-02 -7.33357645066659708E-02
 -7.30141494595045459E-02 -7.26241181166127348E-02 -7.21638958231993477E-02
 -7.16318124623317037E-02 -7.10263173320488245E-02 -7.03459948261233037E-02
 -6.95895809097263340E-02 -6.87559803742820441E-02 -6.78442848479925836E-02
 -6.68537915298335339E-02 -6.57840226052064520E-02 -6.46347452908524051E-02
 -6.34059924450334766E-02 -6.20980836663465735E-02 -6.07116467908138391E-02
 -5.92476396821727605E-02 -5.77073721943195325E-02 -5.60925281671117090E-02
 -5.44051873000199193E-02 -5.26478467281170093E-02 -5.08234421047560128E-02
 -4.89353679742620187E-02 -4.69874971960325821E-02 -4.49841991588040627E-02
 -4.29303565006598081E-02 -4.08313800268254867E-02 -3.86932214936462349E-02
 -3.65223839036495218E-02 -3.43259289335896972E-02 -3.21114810952088589E-02
 -2.98872282075795734E-02 -2.76619177407776522E-02 -2.54448485738387811E-02
 -2.32458576960682672E-02 -2.10753013704858515E-02 -1.89440302722349713E-02
 -1.68633581139697002E-02 -1.48450232754380063E-02 -1.29011429666334755E-02
 -1.10441594739889397E-02 -9.28677806815080865E-03 -7.64189619004230960E-03
 -6.12252358493405469E-03 -4.74169311645099550E-03 -3.51236206544458269E-03
 -2.44730381013034352E-03 -1.55898985119304724E-03 -8.59461640634895559E-04
 -3.60181823432119581E-04 -7.16987557038844018E-05  1.34547671726826233E-06
  9.64861524452547835E-08  6.81866185605145760E-09  4.74958892087824028E-10
  3.25985088525613320E-11  2.20273482626478037E-12  1.46327207590457034E-13
  9.53502267100197600E-15  6.07441616308066543E-16  3.76426198608241391E-17
  2.25110245683429647E-18  1.28185779889827556E-19  6.77816961173601154E-21
  3.14532081026106127E-22  1.06591316012700471E-23 -3.71560254955431432E-26
 -5.50559766265510615E-26 -7.32206978607849714E-27 -7.39610877796119975E-28
 -6.64675318714567150E-29 -5.59044469086596311E-30 -4.50135084268160312E-31
 -3.51154438055128618E-32 -2.67268007986966275E-33 -1.99326214736188873E-34
 -1.46061628276693885E-35 -1.05341345193805011E-36  0.00000000000000000E+00
  0.00000000000000000E+00  0.00000000000000000E+00  0.00000000000000000E+00
  0.00000000000000000E+00  0.00000000000000000E+00  0.00000000000000000E+00
  0.00000000000000000E+00  0.00000000000000000E+00  0.00000000000000000E+00
  0.00000000000000000E+00  0.00000000000000000E+00  0.00000000000000000E+00
  0.00000000000000000E+00  0.00000000000000000E+00  0.00000000000000000E+00
  0.00000000000000000E+00  0.00000000000000000E+00  0.00000000000000000E+00
  0.00000000000000000E+00  0.00000000000000000E+00  0.00000000000000000E+00
  0.00000000000000000E+00  0.00000000000000000E+00  0.00000000000000000E+00
  0.00000000000000000E+00  0.00000000000000000E+00  0.00000000000000000E+00
  0.00000000000000000E+00  0.00000000000000000E+00  0.00000000000000000E+00
  0.00000000000000000E+00  0.00000000000000000E+00  0.00000000000000000E+00
  0.00000000000000000E+00  0.00000000000000000E+00  0.00000000000000000E+00
  0.00000000000000000E+00  0.00000000000000000E+00  0.00000000000000000E+00
  0.00000000000000000E+00  0.00000000000000000E+00  0.00000000000000000E+00
  0.00000000000000000E+00  0.00000000000000000E+00  0.00000000000000000E+00
  0.00000000000000000E+00  0.00000000000000000E+00  0.00000000000000000E+00
  0.00000000000000000E+00  0.00000000000000000E+00  0.00000000000000000E+00
  0.00000000000000000E+00  0.00000000000000000E+00  0.00000000000000000E+00
  0.00000000000000000E+00  0.00000000000000000E+00  0.00000000000000000E+00
  0.00000000000000000E+00  0.00000000000000000E+00  0.00000000000000000E+00
  0.00000000000000000E+00  0.00000000000000000E+00  0.00000000000000000E+00
  0.00000000000000000E+00  0.00000000000000000E+00  0.00000000000000000E+00
  0.00000000000000000E+00  0.00000000000000000E+00  0.00000000000000000E+00
  0.00000000000000000E+00  0.00000000000000000E+00  0.00000000000000000E+00
  0.00000000000000000E+00  0.00000000000000000E+00  0.00000000000000000E+00
  0.00000000000000000E+00  0.00000000000000000E+00  0.00000000000000000E+00
  0.00000000000000000E+00  0.00000000000000000E+00  0.00000000000000000E+00
  0.00000000000000000E+00  0.00000000000000000E+00  0.00000000000000000E+00
  0.00000000000000000E+00  0.00000000000000000E+00  0.00000000000000000E+00
  0.00000000000000000E+00  0.00000000000000000E+00  0.00000000000000000E+00
  0.00000000000000000E+00  0.00000000000000000E+00  0.00000000000000000E+00
  0.00000000000000000E+00  0.00000000000000000E+00  0.00000000000000000E+00
  0.00000000000000000E+00  0.00000000000000000E+00  0.00000000000000000E+00
  0.00000000000000000E+00  0.00000000000000000E+00  0.00000000000000000E+00
  0.00000000000000000E+00  0.00000000000000000E+00  0.00000000000000000E+00
  0.00000000000000000E+00  0.00000000000000000E+00  0.00000000000000000E+00
  0.00000000000000000E+00  0.00000000000000000E+00  0.00000000000000000E+00
  0.00000000000000000E+00  0.00000000000000000E+00  0.00000000000000000E+00
  0.00000000000000000E+00  0.00000000000000000E+00  0.00000000000000000E+00
  0.00000000000000000E+00  0.00000000000000000E+00  0.00000000000000000E+00
  0.00000000000000000E+00  0.00000000000000000E+00  0.00000000000000000E+00
  0.00000000000000000E+00  0.00000000000000000E+00  0.00000000000000000E+00
  0.00000000000000000E+00  0.00000000000000000E+00  0.00000000000000000E+00
  0.00000000000000000E+00  0.00000000000000000E+00  0.00000000000000000E+00
  0.00000000000000000E+00  0.00000000000000000E+00  0.00000000000000000E+00
  0.00000000000000000E+00  0.00000000000000000E+00  0.00000000000000000E+00
  0.00000000000000000E+00  0.00000000000000000E+00  0.00000000000000000E+00
  0.00000000000000000E+00  0.00000000000000000E+00  0.00000000000000000E+00
  0.00000000000000000E+00  0.00000000000000000E+00  0.00000000000000000E+00
  0.00000000000000000E+00  0.00000000000000000E+00  0.00000000000000000E+00
  0.00000000000000000E+00  0.00000000000000000E+00  0.00000000000000000E+00
  0.00000000000000000E+00  0.00000000000000000E+00  0.00000000000000000E+00
  0.00000000000000000E+00  0.00000000000000000E+00  0.00000000000000000E+00
  0.00000000000000000E+00  0.00000000000000000E+00  0.00000000000000000E+00
                       </PP_QIJL.3.3.0>
 <PP_QIJL.3.3.2 type="real" size="   999" columns="3" first_index=" 3" second_index=" 3" composite_index=" 6" angular_momentum="2">
 -1.15643407885960420E-17 -1.21572600212150045E-17 -1.27805752990296387E-17
 -1.34358470774594163E-17 -1.41247190675877273E-17 -1.48489114315818728E-17
 -1.56102289641988205E-17 -1.64105813964527403E-17 -1.72519727486482323E-17
 -1.81365004960275240E-17 -1.90663759427798493E-17 -2.00439313974715025E-17
 -2.10716082778125383E-17 -2.21519696936545631E-17 -2.32877252639291606E-17
 -2.44817158906588029E-17 -2.57369181647384340E-17 -2.70564767019918199E-17
 -2.84436954008776217E-17 -2.99020336834721368E-17 -3.14351415220793575E-17
 -3.30468591175803583E-17 -3.47412070607756739E-17 -3.65224243805987563E-17
 -3.83949727257196657E-17 -4.03635239544454983E-17 -4.24330039175008651E-17
 -4.46085945638439079E-17 -4.68957238377343870E-17 -4.93001179095611730E-17
 -5.18277931489481645E-17 -5.44850571187431869E-17 -5.72785666955470272E-17
 -6.02153042551751373E-17 -6.33026047625789492E-17 -6.65482023443305843E-17
 -6.99602005066974712E-17 -7.35471349230232414E-17 -7.73179816601188482E-17
 -8.12821547112142119E-17 -8.54495827930709370E-17 -8.98306763386927151E-17
 -9.44363913960482004E-17 -9.92782533621385296E-17 -1.04368353212633334E-16
 -1.09719437309697847E-16 -1.15344870625514537E-16 -1.21258728910831314E-16
 -1.27475799001746415E-16 -1.34011619347636350E-16 -1.40882547216184159E-16
 -1.48105744320273102E-16 -1.55699293612632322E-16 -1.63682162299583881E-16
 -1.72074329901651639E-16 -1.80896766820663809E-16 -1.90171543856662263E-16
 -1.99921847004267915E-16 -2.10172058803786504E-16 -2.20947811984987297E-16
 -2.32276046674012363E-16 -2.44185096570494982E-16 -2.56704731574765107E-16
 -2.69866267270229930E-16 -2.83702603974122561E-16 -2.98248349831448100E-16
 -3.13539867686091437E-16 -3.29615401623954985E-16 -3.46515144153788064E-16
 -3.64281354642394243E-16 -3.82958461070148929E-16 -4.02593157568696595E-16
 -4.23234555175918984E-16 -4.44934248281532622E-16 -4.67746522157659899E-16
 -4.91728391441042290E-16 -5.16939850914226386E-16 -5.43443919344671449E-16
 -5.71306885309001034E-16 -6.00598418175865382E-16 -6.31391751294605125E-16
 -6.63763906086344345E-16 -6.97795801260201436E-16 -7.33572560006304122E-16
 -7.71183629988483693E-16 -8.10723053802108040E-16 -8.52289721144307569E-16
 -8.95987542054853127E-16 -9.41925805200780946E-16 -9.90219379072705897E-16
 -1.04098900253338396E-15 -1.09436165351539000E-15 -1.15047077649252522E-15
 -1.20945666519120997E-15 -1.27146683932765968E-15 -1.33665633744305901E-15
 -1.40518816371341302E-15 -1.47723370577146698E-15 -1.55297309774565474E-15
 -1.63259571998947159E-15 -1.71630069389874917E-15 -1.80429731607141692E-15
 -1.89680560569675208E-15 -1.99405690410182118E-15 -2.09629439342853542E-15
 -2.20377369883774563E-15 -2.31676358036492661E-15 -2.43554658858231374E-15
 -2.56041973607246266E-15 -2.69169525154470089E-15 -2.82970140567478447E-15
 -2.97478329746633811E-15 -3.12730370070887936E-15 -3.28764397856130268E-15
 -3.45620507363434481E-15 -3.63340848919941296E-15 -3.81969732555852517E-15
 -4.01553739001878302E-15 -4.22141837613363036E-15 -4.43785510607178034E-15
 -4.66538879164775539E-15 -4.90458838460368317E-15 -5.15605200089380807E-15
 -5.42040842067446616E-15 -5.69831867798323382E-15 -5.99047770113835536E-15
 -6.29761604272007670E-15 -6.62050170743255662E-15 -6.95994207356122151E-15
 -7.31678591280158455E-15 -7.69192551722406351E-15 -8.08629893594474442E-15
 -8.50089231161178359E-15 -8.93674234520911886E-15 -9.39493888892378603E-15
 -9.87662767183924591E-15 -1.03830131652707766E-14 -1.09153615949104048E-14
 -1.14750041073155416E-14 -1.20633400986601317E-14 -1.26818407142902730E-14
 -1.33320525283238880E-14 -1.40156014095482696E-14 -1.47341965863006945E-14
 -1.54896349205614811E-14 -1.62838054011458243E-14 -1.71186938672341249E-14
 -1.79963879740578604E-14 -1.89190824131614130E-14 -1.98890844002974875E-14
 -2.09088194446818427E-14 -2.19808374140340111E-14 -2.31078189105713769E-14
 -2.42925819738965820E-14 -2.55380891275348217E-14 -2.68474547867338251E-14
 -2.82239530460371652E-14 -2.96710258660899396E-14 -3.11922916801259416E-14
 -3.27915544416307989E-14 -3.44728131359749907E-14 -3.62402717822931464E-14
 -3.80983499464011837E-14 -4.00516937908474606E-14 -4.21051876925557107E-14
 -4.42639664559337639E-14 -4.65334281518789291E-14 -4.89192476146954101E-14
 -5.14273906305612457E-14 -5.40641288528967716E-14 -5.68360554820524244E-14
 -5.97501017659782578E-14 -6.28135543474376331E-14 -6.60340734632183434E-14
 -6.94197120927671873E-14 -7.29789360895198701E-14 -7.67206453429152647E-14
 -8.06541960304974171E-14 -8.47894240782563653E-14 -8.91366697411243060E-14
 -9.37068034100522718E-14 -9.85112527795678997E-14 -1.03562031407785688E-13
 -1.08871768836650507E-13 -1.14453742233759784E-13 -1.20321909463967761E-13
 -1.26490943954902810E-13 -1.32976271389226496E-13 -1.39794108497700646E-13
 -1.46961503498919182E-13 -1.54496378576779860E-13 -1.62417574680201158E-13
 -1.70744898954557871E-13 -1.79499174154267218E-13 -1.88702290445430018E-13
 -1.98377260204078541E-13 -2.08548276030608421E-13 -2.19240770821855191E-13
 -2.30481481136640198E-13 -2.42298514567389748E-13 -2.54721420047144924E-13
 -2.67781261100627566E-13 -2.81510693929228618E-13 -2.95944049541718024E-13
 -3.11117418646080049E-13 -3.27068742278789831E-13 -3.43837907391034243E-13
 -3.61466845348865978E-13 -3.79999637419479126E-13 -3.99482625602424251E-13
 -4.19964527021100561E-13 -4.41496557076119089E-13 -4.64132557291939726E-13
 -4.87929128739504039E-13 -5.12945775661021247E-13 -5.39245052393620495E-13
 -5.66892720413078807E-13 -5.95957913759452482E-13 -6.26513309603893270E-13
 -6.58635312860183770E-13 -6.92404244709749921E-13 -7.27904544821123219E-13
 -7.65224982662150577E-13 -8.04458877724959972E-13 -8.45704335934914909E-13
 -8.89064491051352049E-13 -9.34647766780741441E-13 -9.82568143850309848E-13
 -1.03294544848340732E-12 -1.08590564936042488E-12 -1.14158117437316324E-12
 -1.20011124089044625E-12 -1.26164220390853898E-12 -1.32632792270325192E-12
 -1.39433014426953754E-12 -1.46581890950008137E-12 -1.54097297636388224E-12
 -1.61998026899769948E-12 -1.70303834560582195E-12 -1.79035489413125548E-12
 -1.88214825048346386E-12 -1.97864794472124906E-12 -2.08009527591655822E-12
 -2.18674391314646171E-12 -2.29886053386225320E-12 -2.41672548481364267E-12
 -2.54063349070752030E-12 -2.67089438217018718E-12 -2.80783388001892925E-12
 -2.95179440084801321E-12 -3.10313592002544012E-12 -3.26223686845269203E-12
 -3.42949507773828677E-12 -3.60532878074377703E-12 -3.79017764782435562E-12
 -3.98450389738314957E-12 -4.18879344214843751E-12 -4.40355710866716838E-12
 -4.62933191702994670E-12 -4.86668241481620406E-12 -5.11620210095294917E-12
 -5.37851489963041170E-12 -5.65427672314001224E-12 -5.94417711833284447E-12
 -6.24894097867551201E-12 -6.56933036795338574E-12 -6.90614642258944420E-12
 -7.26023134742438295E-12 -7.63247053526605052E-12 -8.02379477096484739E-12
 -8.43518255658462088E-12 -8.86766257118127352E-12 -9.32231623022171984E-12
 -9.80028039028511726E-12 -1.03027502042397098E-11 -1.08309820960679513E-11
 -1.13862969031735288E-11 -1.19700831926026042E-11 -1.25838007197585387E-11
 -1.32289840766329046E-11 -1.39072465441011220E-11 -1.46202841152485733E-11
 -1.53698797299028790E-11 -1.61579077466334764E-11 -1.69863386272368415E-11
 -1.78572438520224507E-11 -1.87728011062552512E-11 -1.97352997365954707E-11
 -2.07471464602125803E-11 -2.18108713804860427E-11 -2.29291343283512404E-11
 -2.41047315094925507E-11 -2.53406024844331607E-11 -2.66398375215293992E-11
 -2.80056853404145868E-11 -2.94415612227260057E-11 -3.09510555448291363E-11
 -3.25379427600663371E-11 -3.42061908521749944E-11 -3.59599712420935741E-11
 -3.78036692128871635E-11 -3.97418948783357149E-11 -4.17794947272685186E-11
 -4.39215637283817460E-11 -4.61734580629061743E-11 -4.85408085177863406E-11
 -5.10295345813760673E-11 -5.36458592411082763E-11 -5.63963245307820482E-11
 -5.92878078872486239E-11 -6.23275393526025130E-11 -6.55231196683700075E-11
 -6.88825392640662283E-11 -7.24141982312499775E-11 -7.61269273263206220E-11
 -8.00300100598807288E-11 -8.41332059217322226E-11 -8.84467747656560183E-11
 -9.29815024594669575E-11 -9.77487278529566529E-11 -1.02760371134644819E-10
 -1.08028963654259530E-10 -1.13567679239171428E-10 -1.19390367127761173E-10
 -1.25511586596667774E-10 -1.31946643363805486E-10 -1.38711627872758388E-10
 -1.45823455528204973E-10 -1.53299908973343790E-10 -1.61159682550669927E-10
 -1.69422429043148812E-10 -1.78108808812071593E-10 -1.87240541468685459E-10
 -1.96840460185570600E-10 -2.06932568768899547E-10 -2.17542101673124554E-10
 -2.28695587093704456E-10 -2.40420913294371439E-10 -2.52747398337895567E-10
 -2.65705863409404723E-10 -2.79328709866229384E-10 -2.93650000239126039E-10
 -3.08705543396372986E-10 -3.24532984073911412E-10 -3.41171896995308205E-10
 -3.58663885817557936E-10 -3.77052687165939888E-10 -3.96384279986586666E-10
 -4.16707000486469392E-10 -4.38071662981904186E-10 -4.60531686943128809E-10
 -4.84143230551768409E-10 -5.08965331105050982E-10 -5.35060052617867227E-10
 -5.62492641004058672E-10 -5.91331687211021645E-10 -6.21649298686900412E-10
 -6.53521279655056325E-10 -6.87027320632270399E-10 -7.22251197662255377E-10
 -7.59280981762443136E-10 -7.98209259107602699E-10 -8.39133362500616367E-10
 -8.82155614713036870E-10 -9.27383584316351356E-10 -9.74930354592723245E-10
 -1.02491480623610617E-09 -1.07746191455373034E-09 -1.13270306190246289E-09
 -1.19077636614096097E-09 -1.25182702591845182E-09 -1.31600768366314835E-09
 -1.38347880717749466E-09 -1.45440909079386180E-09 -1.52897587709559669E-09
 -1.60736560027225890E-09 -1.68977425217265373E-09 -1.77640787224438698E-09
 -1.86748306259818033E-09 -1.96322752947350038E-09 -2.06388065245838855E-09
 -2.16969408288598121E-09 -2.28093237290300557E-09 -2.39787363678214065E-09
 -2.52081024613079628E-09 -2.65004956073334325E-09 -2.78591469685301927E-09
 -2.92874533491320254E-09 -3.07889856857924102E-09 -3.23674979737371764E-09
 -3.40269366501215465E-09 -3.57714504583553095E-09 -3.76054008180827045E-09
 -3.95333727266488431E-09 -4.15601862192887594E-09 -4.36909084166671793E-09
 -4.59308661898674278E-09 -4.82856594744674445E-09 -5.07611752669601481E-09
 -5.33636023384845445E-09 -5.60994467026171962E-09 -5.89755478758629008E-09
 -6.19990959714587805E-09 -6.51776496691865632E-09 -6.85191551060759488E-09
 -7.20319657351794654E-09 -7.57248632020155985E-09 -7.96070792908303223E-09
 -8.36883189955828361E-09 -8.79787847729879546E-09 -9.24892020383159325E-09
 -9.72308459677255560E-09 -1.02215569673979152E-08 -1.07455833825890445E-08
 -1.12964737785460513E-08 -1.18756052340441631E-08 -1.24844254114049937E-08
 -1.31244561737733193E-08 -1.37972973877293049E-08 -1.45046309207292302E-08
 -1.52482248433525797E-08 -1.60299378468453047E-08 -1.68517238869849854E-08
 -1.77156370658588082E-08 -1.86238367637377745E-08 -1.95785930338546914E-08
 -2.05822922735485846E-08 -2.16374431859272584E-08 -2.27466830469241926E-08
 -2.39127842933862968E-08 -2.51386614486303475E-08 -2.64273784027460582E-08
 -2.77821560658078859E-08 -2.92063804130873960E-08 -3.07036109423337388E-08
 -3.22775895642172398E-08 -3.39322499481095533E-08 -3.56717273465078701E-08
 -3.75003689226038866E-08 -3.94227446067490292E-08 -4.14436585088867346E-08
 -4.35681609154052431E-08 -4.58015609003193540E-08 -4.81494395822204122E-08
 -5.06176640600379691E-08 -5.32124020623491583E-08 -5.59401373467448258E-08
 -5.88076858876296235E-08 -6.18222128927933438E-08 -6.49912506911491690E-08
 -6.83227175362080810E-08 -7.18249373721324567E-08 -7.55066606116016747E-08
 -7.93770859772441333E-08 -8.34458834610282449E-08 -8.77232184587857815E-08
 -9.22197771399617386E-08 -9.69467931157509612E-08 -1.01916075472010438E-07
 -1.07140038236722307E-07 -1.12631731355346285E-07 -1.18404873251146086E-07
 -1.24473885051502528E-07 -1.30853926565369860E-07 -1.37560934101366572E-07
 -1.44611660220567018E-07 -1.52023715522853702E-07 -1.59815612570733978E-07
 -1.68006812059827297E-07 -1.76617771350792147E-07 -1.85669995483319755E-07
 -1.95186090798967501E-07 -2.05189821306069147E-07 -2.15706167926748789E-07
 -2.26761390773201466E-07 -2.38383094607898786E-07 -2.50600297650263964E-07
 -2.63443503900627670E-07 -2.76944779160989797E-07 -2.91137830941238061E-07
 -3.06058092449088864E-07 -3.21742810872102843E-07 -3.38231140170731757E-07
 -3.55564238612489481E-07 -3.73785371289055027E-07 -3.92940017870397377E-07
 -4.13075985862949634E-07 -4.34243529652419868E-07 -4.56495475626101226E-07
 -4.79887353684520383E-07 -5.04477535467987219E-07 -5.30327379640177052E-07
 -5.57501384588229019E-07 -5.86067348917099428E-07 -6.16096540135081069E-07
 -6.47663871947534231E-07 -6.80848090597037809E-07 -7.15731970710381350E-07
 -7.52402521136175502E-07 -7.90951201281364269E-07 -8.31474148480681277E-07
 -8.74072416960151888E-07 -9.18852228984136805E-07 -9.65925238805273805E-07
 -1.01540881006800217E-06 -1.06742630734927379E-06 -1.12210740255463334E-06
 -1.17958839692413237E-06 -1.24001255944070565E-06 -1.30353048247362708E-06
 -1.37030045553174705E-06 -1.44048885804534743E-06 -1.51427057214179186E-06
 -1.59182941642887346E-06 -1.67335860185079907E-06 -1.75906121073548096E-06
 -1.84915070020812691E-06 -1.94385143120523802E-06 -2.04339922438525677E-06
 -2.14804194429732817E-06 -2.25804011323795691E-06 -2.37366755629737238E-06
 -2.49521207917260132E-06 -2.62297618040358845E-06 -2.75727779977167824E-06
 -2.89845110468697416E-06 -3.04684731648266171E-06 -3.20283557863033117E-06
 -3.36680386899121506E-06 -3.53915995832391360E-06 -3.72033241738025505E-06
 -3.91077167503728105E-06 -4.11095113003562162E-06 -4.32136831902257829E-06
 -4.54254614373281936E-06 -4.77503416028059179E-06 -5.01940993368528194E-06
 -5.27628046090750988E-06 -5.54628366583557946E-06 -5.83008996983288138E-06
 -6.12840394163601614E-06 -6.44196603058095801E-06 -6.77155438733170014E-06
 -7.11798677649196411E-06 -7.48212258569761293E-06 -7.86486493601533864E-06
 -8.26716289870532021E-06 -8.69001382366088441E-06 -9.13446578509947834E-06
 -9.60162015035024827E-06 -1.00926342778717844E-05 -1.06087243509339997E-05
 -1.11511683537134151E-05 -1.17213091968811368E-05 -1.23205580001085747E-05
 -1.29503975392781514E-05 -1.36123858665656127E-05 -1.43081601119577168E-05
 -1.50394404751850986E-05 -1.58080344174856581E-05 -1.66158410630695514E-05
 -1.74648558206342740E-05 -1.83571752357778950E-05 -1.92950020856808347E-05
 -2.02806507279738136E-05 -2.13165527162818318E-05 -2.24052626955324173E-05
 -2.35494645907422686E-05 -2.47519781036517938E-05 -2.60157655322606201E-05
 -2.73439389290336663E-05 -2.87397676142945838E-05 -3.02066860621058940E-05
 -3.17483021767515520E-05 -3.33684059787906409E-05 -3.50709787205433115E-05
 -3.68602024517998477E-05 -3.87404700575160621E-05 -4.07163957902727087E-05
 -4.27928263213355815E-05 -4.49748523352576097E-05 -4.72678206941318753E-05
 -4.96773471987678767E-05 -5.22093299753239351E-05 -5.48699635172899262E-05
 -5.76657534140219636E-05 -6.06035317984628125E-05 -6.36904735481603964E-05
 -6.69341132752327063E-05 -7.03423631425311401E-05 -7.39235315449169721E-05
 -7.76863426963005240E-05 -8.16399571648924663E-05 -8.57939934009903572E-05
 -9.01585503035686912E-05 -9.47442308739598963E-05 -9.95621670070143849E-05
 -1.04624045472301441E-04 -1.09942135140171391E-04 -1.15529315509841192E-04
 -1.21399106599088532E-04 -1.27565700257652946E-04 -1.34043992969039977E-04
 -1.40849620208115408E-04 -1.47998992424655057E-04 -1.55509332725886981E-04
 -1.63398716334028292E-04 -1.71686111897879088E-04 -1.80391424740683693E-04
 -1.89535542129723499E-04 -1.99140380656442559E-04 -2.09228935819344593E-04
 -2.19825333905461864E-04 -2.30954886269827396E-04 -2.42644146115800750E-04
 -2.54920967883374636E-04 -2.67814569356227862E-04 -2.81355596602254150E-04
 -2.95576191866357197E-04 -3.10510064538432223E-04 -3.26192565323623793E-04
 -3.42660763746203436E-04 -3.59953529122695570E-04 -3.78111615144219348E-04
 -3.97177748212385192E-04 -4.17196719677460090E-04 -4.38215482131928881E-04
 -4.60283249916943285E-04 -4.83451604003527183E-04 -5.07774601414715345E-04
 -5.33308889359057994E-04 -5.60113824250078342E-04 -5.88251595790339945E-04
 -6.17787356302664740E-04 -6.48789355494799923E-04 -6.81329080847338205E-04
 -7.15481403818006285E-04 -7.51324732058400056E-04 -7.88941167841935480E-04
 -8.28416672904057675E-04 -8.69841239897592238E-04 -9.13309070667539372E-04
 -9.58918761550497153E-04 -1.00677349590326775E-03 -1.05698124406582595E-03
 -1.10965497096204694E-03 -1.16491285153921625E-03 -1.22287849424428563E-03
 -1.28368117273062977E-03 -1.34745606598357399E-03 -1.41434450704625708E-03
 -1.48449424051918231E-03 -1.55805968899705612E-03 -1.63520222859502040E-03
 -1.71609047370296290E-03 -1.80090057109115963E-03 -1.88981650347273735E-03
 -1.98303040260829067E-03 -2.08074287201512201E-03 -2.18316331931778284E-03
 -2.29051029824773808E-03 -2.40301186026758897E-03 -2.52090591575931207E-03
 -2.64444060467596692E-03 -2.77387467651200479E-03 -2.90947787939839324E-03
 -3.05153135807480907E-03 -3.20032806043184497E-03 -3.35617315225113884E-03
 -3.51938443969964862E-03 -3.69029279905648717E-03 -3.86924261306786617E-03
 -4.05659221322982998E-03 -4.25271432719926540E-03 -4.45799653042436728E-03
 -4.67284170096706093E-03 -4.89766847636141471E-03 -5.13291171121337073E-03
 -5.37902293409711456E-03 -5.63647080214203008E-03 -5.90574155152986426E-03
 -6.18733944193484812E-03 -6.48178719273847029E-03 -6.78962640863495226E-03
 -7.11141799201264399E-03 -7.44774253924958014E-03 -7.79920071779732424E-03
 -8.16641362064592091E-03 -8.55002309446246944E-03 -8.95069203737685996E-03
 -9.36910466204876960E-03 -9.80596671929032451E-03 -1.02620056771374688E-02
 -1.07379708498597914E-02 -1.12346334709727286E-02 -1.17527867038669537E-02
 -1.22932455831901207E-02 -1.28568468796268556E-02 -1.34444488802318816E-02
 -1.40569310758652151E-02 -1.46951937467466962E-02 -1.53601574365511018E-02
 -1.60527623048466635E-02 -1.67739673470416253E-02 -1.75247494703439539E-02
 -1.83061024135592922E-02 -1.91190354978548853E-02 -1.99645721949033954E-02
 -2.08437484980930655E-02 -2.17576110817544674E-02 -2.27072152326101909E-02
 -2.36936225369090668E-02 -2.47178983059651372E-02 -2.57811087220894339E-02
 -2.68843176861872160E-02 -2.80285833476017626E-02 -2.92149542961279186E-02
 -3.04444653955040050E-02 -3.17181332371304775E-02 -3.30369511922720058E-02
 -3.44018840405883805E-02 -3.58138621525282627E-02 -3.72737752029084282E-02
 -3.87824653928846297E-02 -4.03407201578899824E-02 -4.19492643390702788E-02
 -4.36087517962921167E-02 -4.53197564416083845E-02 -4.70827626730101825E-02
 -4.88981551895740635E-02 -5.07662081707373411E-02 -5.26870738044271716E-02
 -5.46607701511869076E-02 -5.66871683343235927E-02 -5.87659790494927531E-02
 -6.08967383910995544E-02 -6.30787929974773731E-02 -6.53112845220647359E-02
 -6.75931334438133469E-02 -6.99230222368650428E-02 -7.22993779272315812E-02
 -7.47203540728394733E-02 -7.71838122129555188E-02 -7.96873028437551367E-02
 -8.22280459887015924E-02 -8.48029114455629701E-02 -8.74083988063633077E-02
 -9.00406173624253292E-02 -9.26952660239704213E-02 -9.53676134025259886E-02
 -9.80524782253014010E-02 -1.00744210272100218E-01 -1.03436672049328687E-01
 -1.06123221441296128E-01 -1.08796695606111410E-01 -1.11449396412415649E-01
 -1.14073077743805609E-01 -1.16658935030066108E-01 -1.19197597398148683E-01
 -1.21679122871079473E-01 -1.24092997079508480E-01 -1.26428135988186502E-01
 -1.28672893178040759E-01 -1.30815072263366167E-01 -1.32841945062571382E-01
 -1.34740276179449531E-01 -1.36496354689520039E-01 -1.38096033661958301E-01
 -1.39524778281256256E-01 -1.40767723363147773E-01 -1.41809741085527907E-01
 -1.42635519775954761E-01 -1.43229654611597590E-01 -1.43576751093777821E-01
 -1.43661542156617444E-01 -1.43469019755005756E-01 -1.42984581743703432E-01
 -1.42194194824929843E-01 -1.41084574277216046E-01 -1.39643381097687896E-01
 -1.37859437087501369E-01 -1.35722958282066763E-01 -1.33225806971555422E-01
 -1.30361762370025058E-01 -1.27126809770264193E-01 -1.23519447763077717E-01
 -1.19541012801124405E-01 -1.15196020045597841E-01 -1.10492519046130569E-01
 -1.05442462367739034E-01 -1.00062084791080710E-01 -9.43722901720381591E-02
 -8.83990424524139229E-02 -8.21737566649448636E-02 -7.57336850734234013E-02
 -6.91222928341264781E-02 -6.23896167610883678E-02 -5.55925999296745590E-02
 -4.87953939670259587E-02 -4.20696199631680964E-02 -3.54945780058947835E-02
 -2.91573943961539739E-02 -2.31530946882283761E-02 -1.75845898144458036E-02
 -1.25625617005464714E-02 -8.20523381578939712E-03 -4.63800784516813121E-03
 -1.99288938994625743E-03 -4.06723083740076019E-04  7.78656607802316052E-06
  5.58386326561307637E-07  3.94610775678363624E-08  2.74869029699392809E-09
  1.88654653007186112E-10  1.27477050007204496E-11  8.46827341040146437E-13
  5.51812477542878084E-14  3.51539660494987194E-15  2.17846019284014540E-16
  1.30276189870668950E-17  7.41838957571546082E-19  3.92267401527304765E-20
  1.82026548741803375E-21  6.16867103550822018E-23 -2.15029991975755402E-25
 -3.18620898073307128E-25 -4.23744086281574300E-26 -4.28028883597245232E-27
 -3.84662047523947070E-28 -3.23531179932580873E-29 -2.60502952797787230E-30
 -2.03220702403443280E-31 -1.54673802825620063E-32 -1.15354410983547166E-33
 -8.45290375852245161E-35 -6.09633250856075242E-36  0.00000000000000000E+00
  0.00000000000000000E+00  0.00000000000000000E+00  0.00000000000000000E+00
  0.00000000000000000E+00  0.00000000000000000E+00  0.00000000000000000E+00
  0.00000000000000000E+00  0.00000000000000000E+00  0.00000000000000000E+00
  0.00000000000000000E+00  0.00000000000000000E+00  0.00000000000000000E+00
  0.00000000000000000E+00  0.00000000000000000E+00  0.00000000000000000E+00
  0.00000000000000000E+00  0.00000000000000000E+00  0.00000000000000000E+00
  0.00000000000000000E+00  0.00000000000000000E+00  0.00000000000000000E+00
  0.00000000000000000E+00  0.00000000000000000E+00  0.00000000000000000E+00
  0.00000000000000000E+00  0.00000000000000000E+00  0.00000000000000000E+00
  0.00000000000000000E+00  0.00000000000000000E+00  0.00000000000000000E+00
  0.00000000000000000E+00  0.00000000000000000E+00  0.00000000000000000E+00
  0.00000000000000000E+00  0.00000000000000000E+00  0.00000000000000000E+00
  0.00000000000000000E+00  0.00000000000000000E+00  0.00000000000000000E+00
  0.00000000000000000E+00  0.00000000000000000E+00  0.00000000000000000E+00
  0.00000000000000000E+00  0.00000000000000000E+00  0.00000000000000000E+00
  0.00000000000000000E+00  0.00000000000000000E+00  0.00000000000000000E+00
  0.00000000000000000E+00  0.00000000000000000E+00  0.00000000000000000E+00
  0.00000000000000000E+00  0.00000000000000000E+00  0.00000000000000000E+00
  0.00000000000000000E+00  0.00000000000000000E+00  0.00000000000000000E+00
  0.00000000000000000E+00  0.00000000000000000E+00  0.00000000000000000E+00
  0.00000000000000000E+00  0.00000000000000000E+00  0.00000000000000000E+00
  0.00000000000000000E+00  0.00000000000000000E+00  0.00000000000000000E+00
  0.00000000000000000E+00  0.00000000000000000E+00  0.00000000000000000E+00
  0.00000000000000000E+00  0.00000000000000000E+00  0.00000000000000000E+00
  0.00000000000000000E+00  0.00000000000000000E+00  0.00000000000000000E+00
  0.00000000000000000E+00  0.00000000000000000E+00  0.00000000000000000E+00
  0.00000000000000000E+00  0.00000000000000000E+00  0.00000000000000000E+00
  0.00000000000000000E+00  0.00000000000000000E+00  0.00000000000000000E+00
  0.00000000000000000E+00  0.00000000000000000E+00  0.00000000000000000E+00
  0.00000000000000000E+00  0.00000000000000000E+00  0.00000000000000000E+00
  0.00000000000000000E+00  0.00000000000000000E+00  0.00000000000000000E+00
  0.00000000000000000E+00  0.00000000000000000E+00  0.00000000000000000E+00
  0.00000000000000000E+00  0.00000000000000000E+00  0.00000000000000000E+00
  0.00000000000000000E+00  0.00000000000000000E+00  0.00000000000000000E+00
  0.00000000000000000E+00  0.00000000000000000E+00  0.00000000000000000E+00
  0.00000000000000000E+00  0.00000000000000000E+00  0.00000000000000000E+00
  0.00000000000000000E+00  0.00000000000000000E+00  0.00000000000000000E+00
  0.00000000000000000E+00  0.00000000000000000E+00  0.00000000000000000E+00
  0.00000000000000000E+00  0.00000000000000000E+00  0.00000000000000000E+00
  0.00000000000000000E+00  0.00000000000000000E+00  0.00000000000000000E+00
  0.00000000000000000E+00  0.00000000000000000E+00  0.00000000000000000E+00
  0.00000000000000000E+00  0.00000000000000000E+00  0.00000000000000000E+00
  0.00000000000000000E+00  0.00000000000000000E+00  0.00000000000000000E+00
  0.00000000000000000E+00  0.00000000000000000E+00  0.00000000000000000E+00
  0.00000000000000000E+00  0.00000000000000000E+00  0.00000000000000000E+00
  0.00000000000000000E+00  0.00000000000000000E+00  0.00000000000000000E+00
  0.00000000000000000E+00  0.00000000000000000E+00  0.00000000000000000E+00
  0.00000000000000000E+00  0.00000000000000000E+00  0.00000000000000000E+00
  0.00000000000000000E+00  0.00000000000000000E+00  0.00000000000000000E+00
  0.00000000000000000E+00  0.00000000000000000E+00  0.00000000000000000E+00
  0.00000000000000000E+00  0.00000000000000000E+00  0.00000000000000000E+00
  0.00000000000000000E+00  0.00000000000000000E+00  0.00000000000000000E+00
  0.00000000000000000E+00  0.00000000000000000E+00  0.00000000000000000E+00
  0.00000000000000000E+00  0.00000000000000000E+00  0.00000000000000000E+00
                       </PP_QIJL.3.3.2>
 <PP_QIJL.3.4.0 type="real" size="   999" columns="3" first_index=" 3" second_index=" 4" composite_index=" 9" angular_momentum="0">
  2.60466710049035863E-09  2.67060456169736459E-09  2.73821123766304183E-09
  2.80752938475921287E-09  2.87860232908280580E-09  2.95147449353605886E-09
  3.02619142559228728E-09  3.10279982576451302E-09  3.18134757679480784E-09
  3.26188377358259694E-09  3.34445875387051236E-09  3.42912412970712950E-09
  3.51593281970619375E-09  3.60493908212245591E-09  3.69619854876484736E-09
  3.78976825976814700E-09  3.88570669924495119E-09  3.98407383184010316E-09
  4.08493114021054682E-09  4.18834166345403698E-09  4.29437003651053538E-09
  4.40308253056118493E-09  4.51454709444996529E-09  4.62883339715388190E-09
  4.74601287132837141E-09  4.86615875795500721E-09  4.98934615211948360E-09
  5.11565204994847744E-09  5.24515539673473916E-09  5.37793713628045439E-09
  5.51408026148970965E-09  5.65366986624180334E-09  5.79679319857760584E-09
  5.94353971523246050E-09  6.09400113754955722E-09  6.24827150880865837E-09
  6.40644725300627864E-09  6.56862723512375168E-09  6.73491282292103986E-09
  6.90540795029494759E-09  7.08021918224102279E-09  7.25945578146025408E-09
  7.44322977665172674E-09  7.63165603253417450E-09  7.82485232164023579E-09
  8.02293939792793802E-09  8.22604107225595880E-09  8.43428428976932852E-09
  8.64779920924428061E-09  8.86671928444172938E-09  9.09118134752006873E-09
  9.32132569455981259E-09  9.55729617325306785E-09  9.79924027281305425E-09
  1.00473092161596117E-08  1.03016580544383645E-08  1.05624457639326989E-08
  1.08298353454290989E-08  1.11039939260978339E-08  1.13850928639529120E-08
  1.16733078549562555E-08  1.19688190428333805E-08  1.22718111316690514E-08
  1.25824735013532048E-08  1.29010003259496113E-08  1.32275906950607321E-08
  1.35624487382652528E-08  1.39057837527055708E-08  1.42578103339052334E-08
  1.46187485098981269E-08  1.49888238787529142E-08  1.53682677495791744E-08
  1.57573172871029741E-08  1.61562156599024431E-08  1.65652121923959681E-08
  1.69845625206778848E-08  1.74145287522992166E-08  1.78553796300933885E-08
  1.83073907001489622E-08  1.87708444840349326E-08  1.92460306553855742E-08
  1.97332462209557948E-08  2.02327957062599070E-08  2.07449913459096427E-08
  2.12701532787709940E-08  2.18086097480609868E-08  2.23606973065102542E-08
  2.29267610267192745E-08  2.35071547168396020E-08  2.41022411417154483E-08
  2.47123922496230372E-08  2.53379894047501756E-08  2.59794236255610588E-08
  2.66370958291951045E-08  2.73114170820531134E-08  2.80028088567265687E-08
  2.87117032954314871E-08  2.94385434801109466E-08  3.01837837093753905E-08
  3.09478897824537537E-08  3.17313392903323286E-08  3.25346219142645875E-08
  3.33582397318372805E-08  3.42027075307846677E-08  3.50685531307474112E-08
  3.59563177131760920E-08  3.68665561595868365E-08  3.77998373983796380E-08
  3.87567447604365260E-08  3.97378763437218424E-08  4.07438453871118356E-08
  4.17752806536884111E-08  4.28328268237357176E-08  4.39171448976854530E-08
  4.50289126092628820E-08  4.61688248490913149E-08  4.73375940990205335E-08
  4.85359508774501478E-08  4.97646441959263257E-08  5.10244420272972277E-08
  5.23161317857197747E-08  5.36405208188180113E-08  5.49984369123001716E-08
  5.63907288073505302E-08  5.78182667311188913E-08  5.92819429406389312E-08
  6.07826722805166628E-08  6.23213927547363184E-08  6.38990661129415698E-08
  6.55166784515587966E-08  6.71752408301369972E-08  6.88757899032910787E-08
  7.06193885686428073E-08  7.24071266311638758E-08  7.42401214843370496E-08
  7.61195188085616186E-08  7.80464932872372612E-08  8.00222493409774441E-08
  8.20480218804083131E-08  8.41250770780247926E-08  8.62547131595870605E-08
  8.84382612155496701E-08  9.06770860330334176E-08  9.29725869488577310E-08
  9.53261987241678599E-08  9.77393924412035855E-08  1.00213676422768308E-07
  1.02750597174976094E-07  1.05351740353863140E-07  1.08018731756469322E-07
  1.10753238337009663E-07  1.13556969248768384E-07  1.16431676912370153E-07
  1.19379158111093603E-07  1.22401255113912813E-07  1.25499856826969343E-07
  1.28676899974191663E-07  1.31934370307804005E-07  1.35274303849477919E-07
  1.38698788162903562E-07  1.42209963658577327E-07  1.45810024931617380E-07
  1.49501222133448077E-07  1.53285862378207903E-07  1.57166311184759468E-07
  1.61144993955206234E-07  1.65224397490833896E-07  1.69407071546430876E-07
  1.73695630423954764E-07  1.78092754606542545E-07  1.82601192433885973E-07
  1.87223761820016821E-07  1.91963352014579782E-07  1.96822925408690916E-07
  2.01805519386510057E-07  2.06914248223688268E-07  2.12152305033869725E-07
  2.17522963764472441E-07  2.23029581242990083E-07  2.28675599275095791E-07
  2.34464546795860110E-07  2.40400042075423574E-07  2.46485794980507838E-07
  2.52725609293176070E-07  2.59123385088289795E-07  2.65683121171155156E-07
  2.72408917576871078E-07  2.79304978132952857E-07  2.86375613086825187E-07
  2.93625241799829083E-07  3.01058395509429939E-07  3.08679720161344237E-07
  3.16493979313365058E-07  3.24506057112694480E-07  3.32720961348647413E-07
  3.41143826582634000E-07  3.49779917357370999E-07  3.58634631487339605E-07
  3.67713503432536266E-07  3.77022207757628073E-07  3.86566562678677760E-07
  3.96352533699647046E-07  4.06386237340962667E-07  4.16673944962462625E-07
  4.27222086683123264E-07  4.38037255400011963E-07  4.49126210908969388E-07
  4.60495884129615442E-07  4.72153381437301444E-07  4.84105989104723203E-07
  4.96361177855977311E-07  5.08926607535887536E-07  5.21810131897544629E-07
  5.35019803511033409E-07  5.48563878796416662E-07  5.62450823184138430E-07
  5.76689316406040508E-07  5.91288257920330864E-07  6.06256772473876626E-07
  6.21604215805296191E-07  6.37340180492432854E-07  6.53474501947834642E-07
  6.70017264566018003E-07  6.86978808026339170E-07  7.04369733755411072E-07
  7.22200911553124126E-07  7.40483486386375631E-07  7.59228885354797572E-07
  7.78448824832797084E-07  7.98155317792399164E-07  8.18360681311461492E-07
  8.39077544271932521E-07  8.60318855253003175E-07  8.82097890624049472E-07
  9.04428262842442877E-07  9.27323928961412124E-07  9.50799199353255855E-07
  9.74868746653386708E-07  9.99547614930773643E-07  1.02485122909051471E-06
  1.05079540451443997E-06  1.07739635694572517E-06  1.10467071262373542E-06
  1.13263551867541396E-06  1.16130825376970813E-06  1.19070683904168971E-06
  1.22084964929320641E-06  1.25175552447705536E-06  1.28344378147184390E-06
  1.31593422615493718E-06  1.34924716578097076E-06  1.38340342167373147E-06
  1.41842434223928558E-06  1.45433181630851142E-06  1.49114828681738154E-06
  1.52889676483349927E-06  1.56760084393772076E-06  1.60728471496978166E-06
  1.64797318114718590E-06  1.68969167356680297E-06  1.73246626709881112E-06
  1.77632369668299806E-06  1.82129137403751878E-06  1.86739740479060595E-06
  1.91467060604593074E-06  1.96314052439254380E-06  2.01283745437072021E-06
  2.06379245740518594E-06  2.11603738121757366E-06  2.16960487973026899E-06
  2.22452843347402098E-06  2.28084237051212036E-06  2.33858188789418471E-06
  2.39778307365298834E-06  2.45848292935802819E-06  2.52071939323996719E-06
  2.58453136390039088E-06  2.64995872462163390E-06  2.71704236829195145E-06
  2.78582422296157177E-06  2.85634727804552278E-06  2.92865561118973796E-06
  3.00279441581711282E-06  3.07881002937076191E-06  3.15674996227212708E-06
  3.23666292761200010E-06  3.31859887159304939E-06  3.40260900474277408E-06
  3.48874583391652467E-06  3.57706319511046964E-06  3.66761628710499116E-06
  3.76046170595963426E-06  3.85565748038104721E-06  3.95326310798607342E-06
  4.05333959248256595E-06  4.15594948179122842E-06  4.26115690713228412E-06
  4.36902762310128052E-06  4.47962904875918608E-06  4.59303030976239027E-06
  4.70930228155888766E-06  4.82851763367768007E-06  4.95075087513895649E-06
  5.07607840101354097E-06  5.20457854016060484E-06  5.33633160417341552E-06
  5.47141993756376273E-06  5.60992796921632500E-06  5.75194226514520119E-06
  5.89755158258544460E-06  6.04684692545339994E-06  6.19992160121048984E-06
  6.35687127916593859E-06  6.51779405025485686E-06  6.68279048832897235E-06
  6.85196371299820914E-06  7.02541945406250442E-06  7.20326611757389441E-06
  7.38561485357028489E-06  7.57257962552305748E-06  7.76427728154183723E-06
  7.96082762738098402E-06  8.16235350129326459E-06  8.36898085077749623E-06
  8.58083881126801429E-06  8.79805978681502454E-06  9.02077953280625082E-06
  9.24913724078150105E-06  9.48327562539299480E-06  9.72334101356586052E-06
  9.96948343591416979E-06  1.02218567204698357E-05  1.04806185887826273E-05
  1.07459307544512842E-05  1.10179590241473861E-05  1.12968734011946767E-05
  1.15828481917686844E-05  1.18760621137828225E-05  1.21766984085286874E-05
  1.24849449551405264E-05  1.28009943879548831E-05  1.31250442168388786E-05
  1.34572969505620555E-05  1.37979602232885351E-05  1.41472469242687282E-05
  1.45053753308109097E-05  1.48725692446160923E-05  1.52490581315608333E-05
  1.56350772650151073E-05  1.60308678727848315E-05  1.64366772877701791E-05
  1.68527591024338968E-05  1.72793733271758902E-05  1.77167865527122588E-05
  1.81652721165606821E-05  1.86251102737351086E-05  1.90965883717566889E-05
  1.95800010300895867E-05  2.00756503241134081E-05  2.05838459737470305E-05
  2.11049055368409529E-05  2.16391546074589128E-05  2.21869270191719333E-05
  2.27485650534913489E-05  2.33244196535707459E-05  2.39148506433094857E-05
  2.45202269519944619E-05  2.51409268446196991E-05  2.57773381580268292E-05
  2.64298585430139041E-05  2.70988957125624404E-05  2.77848676963375277E-05
  2.84882031016192619E-05  2.92093413808270978E-05  2.99487331058043156E-05
  3.07068402490323197E-05  3.14841364719498556E-05  3.22811074205564704E-05
  3.30982510284831842E-05  3.39360778277195311E-05  3.47951112671890199E-05
  3.56758880393715777E-05  3.65789584151753692E-05  3.75048865872656715E-05
  3.84542510220646066E-05  3.94276448206391724E-05  4.04256760887021738E-05
  4.14489683159554543E-05  4.24981607650102032E-05  4.35739088701262450E-05
  4.46768846460164997E-05  4.58077771069711294E-05  4.69672926965601580E-05
  4.81561557281809044E-05  4.93751088367237325E-05  5.06249134416347516E-05
  5.19063502216629842E-05  5.32202196015857921E-05  5.45673422512124793E-05
  5.59485595969769792E-05  5.73647343464337610E-05  5.88167510259825070E-05
  6.03055165321539152E-05  6.18319606967964862E-05  6.33970368665142254E-05
  6.50017224967126275E-05  6.66470197606198447E-05  6.83339561736589791E-05
  7.00635852335562876E-05  7.18369870765808667E-05  7.36552691503194757E-05
  7.55195669034018733E-05  7.74310444926014005E-05  7.93908955077458623E-05
  8.14003437148858716E-05  8.34606438181771464E-05  8.55730822409457858E-05
  8.77389779264172598E-05  8.99596831585998641E-05  9.22365844038293544E-05
  9.45711031734885918E-05  9.69646969084347307E-05  9.94188598856739794E-05
  1.01935124147842267E-04  1.04515060456059590E-04  1.07160279266743259E-04
  1.09872431732977081E-04  1.12653210731050225E-04  1.15504351912793378E-04
  1.18427634784355122E-04  1.21424883812078056E-04  1.24497969556150261E-04
  1.27648809832723188E-04  1.30879370905205046E-04  1.34191668705456598E-04
  1.37587770085631543E-04  1.41069794101425202E-04  1.44639913327510445E-04
  1.48300355205962706E-04  1.52053403428490595E-04  1.55901399353312772E-04
  1.59846743457540161E-04  1.63891896825942821E-04  1.68039382677005001E-04
  1.72291787927189132E-04  1.76651764794356724E-04  1.81122032441313069E-04
  1.85705378660468851E-04  1.90404661600633601E-04  1.95222811536981816E-04
  2.00162832685255206E-04  2.05227805061295940E-04  2.10420886387021380E-04
  2.15745314043990345E-04  2.21204407075727502E-04  2.26801568240005857E-04
  2.32540286112315094E-04  2.38424137241771217E-04  2.44456788360755467E-04
  2.50641998649597005E-04  2.56983622057647867E-04  2.63485609682131646E-04
  2.70152012206173421E-04  2.76986982397463082E-04  2.83994777669022689E-04
  2.91179762703599630E-04  2.98546412143228140E-04  3.06099313345547261E-04
  3.13843169208499002E-04  3.21782801065060263E-04  3.29923151649712894E-04
  3.38269288138383633E-04  3.46826405263634015E-04  3.55599828506916130E-04
  3.64595017369754996E-04  3.73817568725755376E-04  3.83273220255383486E-04
  3.92967853965506307E-04  4.02907499795726977E-04  4.13098339313592504E-04
  4.23546709500801115E-04  4.34259106632582258E-04  4.45242190252473000E-04
  4.56502787244756920E-04  4.68047896006895442E-04  4.79884690724313170E-04
  4.92020525749971792E-04  5.04462940091201075E-04  5.17219662006325703E-04
  5.30298613713666919E-04  5.43707916215561905E-04  5.57455894240103402E-04
  5.71551081303346763E-04  5.86002224894802397E-04  6.00818291789085657E-04
  6.16008473486654644E-04  6.31582191786632472E-04  6.47549104494763404E-04
  6.63919111269629047E-04  6.80702359610297855E-04  6.97909250988655778E-04
  7.15550447129733431E-04  7.33636876443398509E-04  7.52179740610861439E-04
  7.71190521329505438E-04  7.90680987219613985E-04  8.10663200896652165E-04
  8.31149526212805094E-04  8.52152635671577343E-04  8.73685518019293281E-04
  8.95761486017437793E-04  9.18394184399833513E-04  9.41597598018722504E-04
  9.65386060183905754E-04  9.89774261199143166E-04  1.01477725710011021E-03
  1.04041047859827827E-03  1.06668974023514012E-03  1.09363124975129220E-03
  1.12125161767496605E-03  1.14956786713463059E-03  1.17859744390042963E-03
  1.20835822665920907E-03  1.23886853752802682E-03  1.27014715281107663E-03
  1.30221331400501815E-03  1.33508673905780354E-03  1.36878763388612826E-03
  1.40333670415672212E-03  1.43875516733673768E-03  1.47506476501858179E-03
  1.51228777552456705E-03  1.55044702679684875E-03  1.58956590957813788E-03
  1.62966839088875661E-03  1.67077902780564326E-03  1.71292298154894929E-03
  1.75612603188194391E-03  1.80041459182994504E-03  1.84581572272404836E-03
  1.89235714957546410E-03  1.94006727678626921E-03  1.98897520420243971E-03
  2.03911074351499026E-03  2.09050443501511765E-03  2.14318756470918389E-03
  2.19719218179941249E-03  2.25255111653613642E-03  2.30929799844741815E-03
  2.36746727495180812E-03  2.42709423036001392E-03  2.48821500527114832E-03
  2.55086661636918805E-03  2.61508697662519909E-03  2.68091491591077990E-03
  2.74839020202808509E-03  2.81755356216168307E-03  2.88844670475733650E-03
  2.96111234183268554E-03  3.03559421172462695E-03  3.11193710227799332E-03
  3.19018687447994182E-03  3.27039048654425733E-03  3.35259601844947004E-03
  3.43685269693448430E-03  3.52321092095506929E-03  3.61172228760428451E-03
  3.70243961849951297E-03  3.79541698663844089E-03  3.89070974372589121E-03
  3.98837454797297975E-03  4.08846939236957689E-03  4.19105363343053646E-03
  4.29618802041567549E-03  4.40393472502271458E-03  4.51435737155197764E-03
  4.62752106754078969E-03  4.74349243486483184E-03  4.86233964130297971E-03
  4.98413243256122344E-03  5.10894216475044592E-03  5.23684183731179097E-03
  5.36790612638250036E-03  5.50221141859383051E-03  5.63983584529161204E-03
  5.78085931716873936E-03  5.92536355929759121E-03  6.07343214654901611E-03
  6.22515053938298580E-03  6.38060611999454776E-03  6.53988822879693170E-03
  6.70308820122205579E-03  6.87029940481664620E-03  7.04161727661038305E-03
  7.21713936073030589E-03  7.39696534623346044E-03  7.58119710512762234E-03
  7.76993873054725604E-03  7.96329657504936742E-03  8.16137928899123184E-03
  8.36429785894890476E-03  8.57216564613253601E-03  8.78509842475115946E-03
  9.00321442027633180E-03  9.22663434755031063E-03  9.45548144868077999E-03
  9.68988153066008100E-03  9.92996300264281997E-03  1.01758569128111917E-02
  1.04276969847528940E-02  1.06856196532715050E-02  1.09497640995441566E-02
  1.12202722855359281E-02  1.14972889875746814E-02  1.17809618289846253E-02
  1.20714413116700253E-02  1.23688808465341176E-02  1.26734367826118310E-02
  1.29852684347872751E-02  1.33045381099599243E-02  1.36314111315151715E-02
  1.39660558619469841E-02  1.43086437234716170E-02  1.46593492164625132E-02
  1.50183499355269028E-02  1.53858265830349328E-02  1.57619629799019313E-02
  1.61469460734134269E-02  1.65409659418716964E-02  1.69442157958305979E-02
  1.73568919756736280E-02  1.77791939452769387E-02  1.82113242814864601E-02
  1.86534886591239041E-02  1.91058958312225156E-02  1.95687576041781580E-02
  2.00422888074863331E-02  2.05267072577189937E-02  2.10222337163787423E-02
  2.15290918412506041E-02  2.20475081308532869E-02  2.25777118615733373E-02
  2.31199350170458173E-02  2.36744122093275403E-02  2.42413805913845662E-02
  2.48210797603966062E-02  2.54137516513580665E-02  2.60196404204332266E-02
  2.66389923174994159E-02  2.72720555472878365E-02  2.79190801185069080E-02
  2.85803176803074745E-02  2.92560213454230063E-02  2.99464454992913187E-02
  3.06518455944364485E-02  3.13724779293617570E-02  3.21085994111763029E-02
  3.28604673011473961E-02  3.36283389423428294E-02  3.44124714684957700E-02
  3.52131214931949502E-02  3.60305447784719859E-02  3.68649958818261791E-02
  3.77167277806963255E-02  3.85859914733571938E-02  3.94730355551872053E-02
  4.03781057692226275E-02  4.13014445298820546E-02  4.22432904187154540E-02
  4.32038776509996864E-02  4.41834355119753858E-02  4.51821877614948589E-02
  4.62003520058151818E-02  4.72381390352498015E-02  4.82957521263675735E-02
  4.93733863074054952E-02  5.04712275855406303E-02  5.15894521346497437E-02
  5.27282254421696378E-02  5.38877014136608309E-02  5.50680214336677076E-02
  5.62693133814661170E-02  5.74916906002894065E-02  5.87352508186303468E-02
  6.00000750222275392E-02  6.12862262753642237E-02  6.25937484901308017E-02
  6.39226651423366737E-02  6.52729779327970161E-02  6.66446653927711685E-02
  6.80376814323895712E-02  6.94519538309775891E-02  7.08873826682679398E-02
  7.23438386955904400E-02  7.38211616462373932E-02  7.53191584843302536E-02
  7.68376015916532040E-02  7.83762268920832755E-02  7.99347319134238593E-02
  8.15127737866458146E-02  8.31099671827657954E-02  8.47258821878376922E-02
  8.63600421168025795E-02  8.80119212672428042E-02  8.96809426144129507E-02
  9.13664754492779368E-02  9.30678329616813349E-02  9.47842697711929472E-02
  9.65149794086469226E-02  9.82590917518858104E-02  1.00015670419768429E-01
  1.01783710129087782E-01  1.03562134019677288E-01  1.05349790953666964E-01
  1.07145452795581117E-01  1.08947811680755346E-01  1.10755477280389106E-01
  1.12566974072448478E-01  1.14380738628588774E-01  1.16195116928285783E-01
  1.18008361712443999E-01  1.19818629889899150E-01  1.21623980011446725E-01
  1.23422369827340825E-01  1.25211653945435458E-01  1.26989581608690061E-01
  1.28753794612230771E-01  1.30501825381677067E-01  1.32231095236091500E-01
  1.33938912860601500E-01  1.35622473015505479E-01  1.37278855510496400E-01
  1.38905024474519717E-01  1.40497827953716847E-01  1.42053997871887494E-01
  1.43570150389929124E-01  1.45042786702768045E-01  1.46468294314369557E-01
  1.47842948833507487E-01  1.49162916335049911E-01  1.50424256333586359E-01
  1.51622925418243237E-01  1.52754781599501843E-01  1.53815589420720628E-01
  1.54801025888839122E-01  1.55706687280384032E-01  1.56528096880374140E-01
  1.57260713712986111E-01  1.57899942323911857E-01  1.58441143675251223E-01
  1.58879647213363950E-01  1.59210764171078739E-01  1.59429802165059642E-01
  1.59532081147933963E-01  1.59512950773419093E-01  1.59367809230565483E-01
  1.59092123600400870E-01  1.58681451784634581E-01  1.58131466051580988E-01
  1.57437978238997217E-01  1.56596966647007313E-01  1.55604604646602113E-01
  1.54457291020274445E-01  1.53151682041042764E-01  1.51684725284355365E-01
  1.50053695154018368E-01  1.48256230088263080E-01  1.46290371395241425E-01
  1.44154603648516011E-01  1.41847896552385250E-01  1.39369748164062252E-01
  1.36720229334722998E-01  1.33900029204175597E-01  1.30910501554320158E-01
  1.27753711794825586E-01  1.24432484320014469E-01  1.20950449937679755E-01
  1.17312093034511233E-01  1.13522798099682090E-01  1.09588895184725324E-01
  1.05517703832490345E-01  1.01317574960683776E-01  9.69979301366851593E-02
  9.25692976303436610E-02  8.80433445807231180E-02  8.34329045617662052E-02
  7.87519997811954725E-02  7.40158570973584590E-02  6.92409169909375538E-02
  6.44448345834471442E-02  5.96464717532167454E-02  5.48658793633476291E-02
  5.01242685861899573E-02  4.54439702867063255E-02  4.08483814142518789E-02
  3.63618973505412252E-02  3.20098291727970996E-02  2.78183048172813141E-02
  2.38141531717526965E-02  2.00247701880693109E-02  1.64779661884555638E-02
  1.32017936532590526E-02  1.02243549121647254E-02  7.57358931824083682E-03
  5.27703968142794345E-03  3.36159788320314476E-03  1.85322850539506559E-03
  7.76648067523392810E-04  1.54601638502027542E-04 -2.90120662505072167E-06
 -2.08049876379997602E-07 -1.47028534175763909E-08 -1.02413803722268950E-09
 -7.02910787202934702E-11 -4.74968372857779661E-12 -3.15520483289019877E-13
 -2.05600517556962586E-14 -1.30980612220665378E-15 -8.11675272584555580E-17
 -4.85397723915683922E-18 -2.76402727063698577E-19 -1.46155413400327019E-20
 -6.78215048653274202E-22 -2.29839303958221081E-23  8.01183000379861577E-26
  1.18715368380277031E-25  1.57883351676157207E-26  1.59479829794324056E-27
  1.43321724814203883E-28  1.20544896585424963E-29  9.70611287349518706E-31
  7.57182617154406856E-32  5.76301102415357666E-33  4.29800476899382113E-34
  3.14947823461705800E-35  2.27144033520342242E-36  0.00000000000000000E+00
  0.00000000000000000E+00  0.00000000000000000E+00  0.00000000000000000E+00
  0.00000000000000000E+00  0.00000000000000000E+00  0.00000000000000000E+00
  0.00000000000000000E+00  0.00000000000000000E+00  0.00000000000000000E+00
  0.00000000000000000E+00  0.00000000000000000E+00  0.00000000000000000E+00
  0.00000000000000000E+00  0.00000000000000000E+00  0.00000000000000000E+00
  0.00000000000000000E+00  0.00000000000000000E+00  0.00000000000000000E+00
  0.00000000000000000E+00  0.00000000000000000E+00  0.00000000000000000E+00
  0.00000000000000000E+00  0.00000000000000000E+00  0.00000000000000000E+00
  0.00000000000000000E+00  0.00000000000000000E+00  0.00000000000000000E+00
  0.00000000000000000E+00  0.00000000000000000E+00  0.00000000000000000E+00
  0.00000000000000000E+00  0.00000000000000000E+00  0.00000000000000000E+00
  0.00000000000000000E+00  0.00000000000000000E+00  0.00000000000000000E+00
  0.00000000000000000E+00  0.00000000000000000E+00  0.00000000000000000E+00
  0.00000000000000000E+00  0.00000000000000000E+00  0.00000000000000000E+00
  0.00000000000000000E+00  0.00000000000000000E+00  0.00000000000000000E+00
  0.00000000000000000E+00  0.00000000000000000E+00  0.00000000000000000E+00
  0.00000000000000000E+00  0.00000000000000000E+00  0.00000000000000000E+00
  0.00000000000000000E+00  0.00000000000000000E+00  0.00000000000000000E+00
  0.00000000000000000E+00  0.00000000000000000E+00  0.00000000000000000E+00
  0.00000000000000000E+00  0.00000000000000000E+00  0.00000000000000000E+00
  0.00000000000000000E+00  0.00000000000000000E+00  0.00000000000000000E+00
  0.00000000000000000E+00  0.00000000000000000E+00  0.00000000000000000E+00
  0.00000000000000000E+00  0.00000000000000000E+00  0.00000000000000000E+00
  0.00000000000000000E+00  0.00000000000000000E+00  0.00000000000000000E+00
  0.00000000000000000E+00  0.00000000000000000E+00  0.00000000000000000E+00
  0.00000000000000000E+00  0.00000000000000000E+00  0.00000000000000000E+00
  0.00000000000000000E+00  0.00000000000000000E+00  0.00000000000000000E+00
  0.00000000000000000E+00  0.00000000000000000E+00  0.00000000000000000E+00
  0.00000000000000000E+00  0.00000000000000000E+00  0.00000000000000000E+00
  0.00000000000000000E+00  0.00000000000000000E+00  0.00000000000000000E+00
  0.00000000000000000E+00  0.00000000000000000E+00  0.00000000000000000E+00
  0.00000000000000000E+00  0.00000000000000000E+00  0.00000000000000000E+00
  0.00000000000000000E+00  0.00000000000000000E+00  0.00000000000000000E+00
  0.00000000000000000E+00  0.00000000000000000E+00  0.00000000000000000E+00
  0.00000000000000000E+00  0.00000000000000000E+00  0.00000000000000000E+00
  0.00000000000000000E+00  0.00000000000000000E+00  0.00000000000000000E+00
  0.00000000000000000E+00  0.00000000000000000E+00  0.00000000000000000E+00
  0.00000000000000000E+00  0.00000000000000000E+00  0.00000000000000000E+00
  0.00000000000000000E+00  0.00000000000000000E+00  0.00000000000000000E+00
  0.00000000000000000E+00  0.00000000000000000E+00  0.00000000000000000E+00
  0.00000000000000000E+00  0.00000000000000000E+00  0.00000000000000000E+00
  0.00000000000000000E+00  0.00000000000000000E+00  0.00000000000000000E+00
  0.00000000000000000E+00  0.00000000000000000E+00  0.00000000000000000E+00
  0.00000000000000000E+00  0.00000000000000000E+00  0.00000000000000000E+00
  0.00000000000000000E+00  0.00000000000000000E+00  0.00000000000000000E+00
  0.00000000000000000E+00  0.00000000000000000E+00  0.00000000000000000E+00
  0.00000000000000000E+00  0.00000000000000000E+00  0.00000000000000000E+00
  0.00000000000000000E+00  0.00000000000000000E+00  0.00000000000000000E+00
  0.00000000000000000E+00  0.00000000000000000E+00  0.00000000000000000E+00
  0.00000000000000000E+00  0.00000000000000000E+00  0.00000000000000000E+00
  0.00000000000000000E+00  0.00000000000000000E+00  0.00000000000000000E+00
  0.00000000000000000E+00  0.00000000000000000E+00  0.00000000000000000E+00
  0.00000000000000000E+00  0.00000000000000000E+00  0.00000000000000000E+00
  0.00000000000000000E+00  0.00000000000000000E+00  0.00000000000000000E+00
                       </PP_QIJL.3.4.0>
 <PP_QIJL.3.4.2 type="real" size="   999" columns="3" first_index=" 3" second_index=" 4" composite_index=" 9" angular_momentum="2">
  3.87504056179617788E-17  4.07371907864975129E-17  4.28258286331967647E-17
  4.50215480147283891E-17  4.73298567652495213E-17  4.97565188952584542E-17
  5.23075820066175384E-17  5.49894453271576541E-17  5.78088240342580759E-17
  6.07727464590529327E-17  6.38886223567408779E-17  6.71642669503962307E-17
  7.06078610717911378E-17  7.42279933251711045E-17  7.80337432451666018E-17
  8.20346302767424915E-17  8.62406285383242333E-17  9.06622751751681788E-17
  9.53106410652201034E-17  1.00197318223201013E-16  1.05334537169627345E-16
  1.10735165853007064E-16  1.16412676681944574E-16  1.22381274019109614E-16
  1.28655908193176344E-16  1.35252233914404402E-16  1.42186756984298790E-16
  1.49476841351889587E-16  1.57140675260292596E-16  1.65197446264532636E-16
  1.73667314334601482E-16  1.82571415186168776E-16  1.91932055033928878E-16
  2.01772630792584667E-16  2.12117720851190654E-16  2.22993241130701659E-16
  2.34426345289119358E-16  2.46445635112774311E-16  2.59081188081752667E-16
  2.72364549103179951E-16  2.86328987847053976E-16  3.01009388143670362E-16
  3.16442462098847881E-16  3.32666829623298919E-16  3.49723005798693901E-16
  3.67653701810485222E-16  3.86503701715335581E-16  4.06320171284370948E-16
  4.27152659031172029E-16  4.49053232014901109E-16  4.72076701034470750E-16
  4.96280572466377413E-16  5.21725439626386928E-16  5.48474858834038466E-16
  5.76595778524915415E-16  6.06158467432158211E-16  6.37236881561523387E-16
  6.69908713771829564E-16  7.04255666370550490E-16  7.40363630866230708E-16
  7.78322879660426805E-16  8.18228354814559791E-16  8.60179810887413832E-16
  9.04282181794494452E-16  9.50645711661346745E-16  9.99386367293269058E-16
  1.05062599523350303E-15  1.10449274579068280E-15  1.16112129815191582E-15
  1.22065325724174787E-15  1.28323749468994234E-15  1.34903047566596098E-15
  1.41819676403669655E-15  1.49090924501590002E-15  1.56734982056861050E-15
  1.64770953835939236E-15  1.73218943208321733E-15  1.82100066836386746E-15
  1.91436537047485643E-15  2.01251699022668624E-15  2.11570092180511952E-15
  2.22417525266748725E-15  2.33821112951015009E-15  2.45809378762712432E-15
  2.58412295298795833E-15  2.71661374850216169E-15  2.85589753900455710E-15
  3.00232251175998791E-15  3.15625487702241638E-15  3.31807954221418717E-15
  3.48820108551153800E-15  3.66704499129630871E-15  3.85505841237917556E-15
  4.05271145240926647E-15  4.26049842826503375E-15  4.47893885130187093E-15
  4.70857892454622895E-15  4.94999294275542809E-15  5.20378450890780265E-15
  5.47058820872234583E-15  5.75107126871864333E-15  6.04593501102239913E-15
  6.35591668758632776E-15  6.68179148918212142E-15  7.02437428341099847E-15
  7.38452163260108822E-15  7.76313411211409086E-15  8.16115850737270323E-15
  8.57959006386977555E-15  9.01947501410167330E-15  9.48191334483551902E-15
  9.96806143209077746E-15  1.04791348774956233E-14  1.10164115729217191E-14
  1.15812350181049854E-14  1.21750176085321121E-14  1.27992441081638380E-14
  1.34554753687962148E-14  1.41453522815246620E-14  1.48705999397395811E-14
  1.56330318646542782E-14  1.64345545299007120E-14  1.72771721340974850E-14
  1.81629916270956960E-14  1.90942280367600219E-14  2.00732099657060039E-14
  2.11023853882131363E-14  2.21843277751213624E-14  2.33217425323521676E-14
  2.45174737690579310E-14  2.57745114247683129E-14  2.70959987641451394E-14
  2.84852402062047371E-14  2.99457095835127918E-14  3.14810588305014842E-14
  3.30951271168670286E-14  3.47919504488872990E-14  3.65757717626766031E-14
  3.84510515346234771E-14  4.04224789355463673E-14  4.24949835571899854E-14
  4.46737477420227066E-14  4.69642195372909036E-14  4.93721263158361248E-14
  5.19034890979525445E-14  5.45646376074121193E-14  5.73622260993202113E-14
  6.03032499993987881E-14  6.33950633963162457E-14  6.66453974308181078E-14
  7.00623796276512479E-14  7.36545542186236311E-14  7.74309035076229548E-14
  8.14008703310067870E-14  8.55743816695129353E-14  8.99618734707080511E-14
  9.45743167440006326E-14  9.94232449934231817E-14  1.04520783056705250E-13
  1.09879677422662329E-13  1.15513328103279423E-13  1.21435822148538109E-13
  1.27661968873655988E-13  1.34207336886183360E-13  1.41088293015016560E-13
  1.48322043234729447E-13  1.55926675687192761E-13  1.63921205907759764E-13
  1.72325624368732685E-13  1.81160946458569642E-13  1.90449265022212693E-13
  2.00213805652405339E-13  2.10478984817655044E-13  2.21270470845113482E-13
  2.32615248084835914E-13  2.44541684366907271E-13  2.57079601912240610E-13
  2.70260351896099056E-13  2.84116893060248327E-13  2.98683874078585230E-13
  3.13997720032857035E-13  3.30096723447153187E-13  3.47021139988299859E-13
  3.64813289394367667E-13  3.83517661501765292E-13  4.03181027063322511E-13
  4.23852554577512158E-13  4.45583933238815735E-13  4.68429502927586531E-13
  4.92446389717645294E-13  5.17694648212042287E-13  5.44237411660321743E-13
  5.72141050894287683E-13  6.01475339902315476E-13  6.32313629412385084E-13
  6.64733030512952255E-13  6.98814609050780100E-13  7.34643586923634482E-13
  7.72309554408911854E-13  8.11906695916028708E-13  8.53534025574873562E-13
  8.97295632689359218E-13  9.43300943388737318E-13  9.91664995835530222E-13
  1.04250872468559143E-12  1.09595926477348237E-12  1.15215027140784606E-12
  1.21122225043094075E-12  1.27332291168763749E-12  1.33860754040452747E-12
  1.40723938049899191E-12  1.47939004724801337E-12  1.55523995568346097E-12
  1.63497876767171238E-12  1.71880587317919520E-12  1.80693088259194238E-12
  1.89957415294603457E-12  1.99696734224456602E-12  2.09935398100196740E-12
  2.20699009085011593E-12  2.32014481625793221E-12  2.43910110213906625E-12
  2.56415640192804067E-12  2.69562341552172968E-12  2.83383088145100747E-12
  2.97912438577912307E-12  3.13186724040436087E-12  3.29244137798448344E-12
  3.46124831857527189E-12  3.63871016470288905E-12  3.82527066276120681E-12
  4.02139630968330431E-12  4.22757751954233687E-12  4.44432985214882441E-12
  4.67219529790035786E-12  4.91174363882633757E-12  5.16357386659717278E-12
  5.42831568736369046E-12  5.70663108962046186E-12  5.99921600512706907E-12
  6.30680204541307440E-12  6.63015833195653073E-12  6.97009342246809405E-12
  7.32745732472674811E-12  7.70314363566082440E-12  8.09809175600776763E-12
  8.51328926492547929E-12  8.94977435928669961E-12  9.40863848165774058E-12
  9.89102901969871533E-12  1.03981521979387618E-11  1.09312760826861013E-11
  1.14917337491656443E-11  1.20809266342015228E-11  1.27003280085069863E-11
  1.33514866979885615E-11  1.40360309247524562E-11  1.47556723934480434E-11
  1.55122105794380959E-11  1.63075371986529588E-11  1.71436409787318261E-11
  1.80226125978973703E-11  1.89466499217959779E-11  1.99180635205380392E-11
  2.09392824055453124E-11  2.20128601405124242E-11  2.31414812157975429E-11
  2.43279677359881320E-11  2.55752865221994179E-11  2.68865564976070050E-11
  2.82650564787526372E-11  2.97142334179006677E-11  3.12377109792746315E-11
  3.28392986021134097E-11  3.45230010679489982E-11  3.62930284688081097E-11
  3.81538067366209682E-11  4.01099887553910972E-11  4.21664659508397873E-11
  4.43283805150918417E-11  4.66011383151517909E-11  4.89904223744781324E-11
  5.15022070622784194E-11  5.41427730785222050E-11  5.69187231509623506E-11
  5.98369985055354728E-11  6.29048962453681163E-11  6.61300876345042956E-11
  6.95206372283068594E-11  7.30850230311862399E-11  7.68321577455182591E-11
  8.07714110454107451E-11  8.49126329659581787E-11  8.92661785420444854E-11
  9.38429337554849680E-11  9.86543427128796991E-11  1.03712436237517876E-10
  1.09029861967572357E-10  1.14619916033114086E-10  1.20496576252362321E-10
  1.26674537064077406E-10  1.33169246281687163E-10  1.39996943776654360E-10
  1.47174702039940268E-10  1.54720468847302371E-10  1.62653112137868172E-10
  1.70992467246738443E-10  1.79759386489803008E-10  1.88975791260413605E-10
  1.98664726838233804E-10  2.08850420031251935E-10  2.19558339806746376E-10
  2.30815260919148351E-10  2.42649330840162590E-10  2.55090140136051667E-10
  2.68168796485842587E-10  2.81918002504873323E-10  2.96372137454604628E-10
  3.11567343192182349E-10  3.27541614536048556E-10  3.44334894285246135E-10
  3.61989173150164885E-10  3.80548594689308161E-10  4.00059565664164653E-10
  4.20570872070026178E-10  4.42133801117144665E-10  4.64802269516109906E-10
  4.88632958300840068E-10  5.13685454494019958E-10  5.40022400088625064E-10
  5.67709648670722399E-10  5.96816430073199727E-10  6.27415523519799286E-10
  6.59583439614558786E-10  6.93400611582558983E-10  7.28951596370317248E-10
  7.66325286060239129E-10  8.05615130123535675E-10  8.46919369077764024E-10
  8.90341280182489653E-10  9.35989435621988594E-10  9.83977973928436034E-10
  1.03442688535427111E-09  1.08746231187453172E-09  1.14321686256901617E-09
  1.20182994517511252E-09  1.26344811469331058E-09  1.32822543981157904E-09
  1.39632388805235708E-09  1.46791373071812845E-09  1.54317396859912048E-09
  1.62229277950473157E-09  1.70546798873741513E-09  1.79290756368547784E-09
  1.88483013381275995E-09  1.98146553729870540E-09  2.08305539559971660E-09
  2.18985371752239127E-09  2.30212753427115552E-09  2.42015756705046768E-09
  2.54423892889020598E-09  2.67468186244859867E-09  2.81181251563676091E-09
  2.95597375701712206E-09  3.10752603305637344E-09  3.26684826920582771E-09
  3.43433881719128100E-09  3.61041645089150025E-09  3.79552141326651971E-09
  3.99011651695252112E-09  4.19468830127375763E-09  4.40974824856336952E-09
  4.63583406283293726E-09  4.87351101398624190E-09  5.12337335094448112E-09
  5.38604578726449230E-09  5.66218506281392925E-09  5.95248158548667836E-09
  6.25766115710764126E-09  6.57848678780445097E-09  6.91576060337941692E-09
  7.27032585044828844E-09  7.64306900435628367E-09  8.03492198513857411E-09
  8.44686448706268772E-09  8.87992642757335481E-09  9.33519052175923919E-09
  9.81379498877411376E-09  1.03169363969852396E-08  1.08458726549958681E-08
  1.14019261558702119E-08  1.19864870825237784E-08  1.26010168825511530E-08
  1.32470519211471051E-08  1.39262073212474294E-08  1.46401810004823924E-08
  1.53907579150282861E-08  1.61798145209585320E-08  1.70093234642383707E-08
  1.78813585110797864E-08  1.87980997309710229E-08  1.97618389453278946E-08
  2.07749854553762226E-08  2.18400720635717042E-08  2.29597614035968346E-08
  2.41368525947443978E-08  2.53742882373065821E-08  2.66751617664445260E-08
  2.80427251829364255E-08  2.94803971800154396E-08  3.09917716866373328E-08
  3.25806268485481690E-08  3.42509344695521905E-08  3.60068699365532462E-08
  3.78528226531512128E-08  3.97934070078429015E-08  4.18334739042107847E-08
  4.39781228818856177E-08  4.62327148585409248E-08  4.86028855247290376E-08
  5.10945594249932858E-08  5.37139647604059105E-08  5.64676489494773736E-08
  5.93624949862766581E-08  6.24057386365870281E-08  6.56049865150140443E-08
  6.89682350881564542E-08  7.25038906512609716E-08  7.62207903282084031E-08
  8.01282241472270911E-08  8.42359582474141488E-08  8.85542592739606703E-08
  9.30939200229391352E-08  9.78662863996271827E-08  1.02883285757610895E-07
  1.08157456689354171E-07  1.13701980342533693E-07  1.19530713340240063E-07
  1.25658222387142904E-07  1.32099820647909379E-07  1.38871605988586920E-07
  1.45990501176292878E-07  1.53474296137430331E-07  1.61341692379778271E-07
  1.69612349689179800E-07  1.78306935217224020E-07  1.87447175082257511E-07
  1.97055908612322472E-07  2.07157145365185024E-07  2.17776125067516104E-07
  2.28939380622569386E-07  2.40674804343320618E-07  2.53011717576040103E-07
  2.65980943887720105E-07  2.79614885999617819E-07  2.93947606658495172E-07
  3.09014913646919633E-07  3.24854449144269503E-07  3.41505783660900681E-07
  3.59010514779282959E-07  3.77412370947850948E-07  3.96757320585870964E-07
  4.17093686770783427E-07  4.38472267793369227E-07  4.60946463880611281E-07
  4.84572410401454400E-07  5.09409117886727538E-07  5.35518619211395482E-07
  5.62966124305072667E-07  5.91820182775374211E-07  6.22152854848308922E-07
  6.54039891050508655E-07  6.87560921079755143E-07  7.22799652333012481E-07
  7.59844078585086555E-07  7.98786699336149589E-07  8.39724750372789977E-07
  8.82760446114955528E-07  9.28001234350347942E-07  9.75560063988412168E-07
  1.02555566649827823E-06  1.07811285172881640E-06  1.13336281884449167E-06
  1.19144348314803088E-06  1.25249981960016112E-06  1.31668422388783799E-06
  1.38415689193573490E-06  1.45508621880119855E-06  1.52964921794071146E-06
  1.60803196188609186E-06  1.69043004542133513E-06  1.77704907240653602E-06
  1.86810516745346815E-06  1.96382551371856161E-06  2.06444891814327634E-06
  2.17022640553932658E-06  2.28142184298712851E-06  2.39831259609027373E-06
  2.52119021870709716E-06  2.65036117786252069E-06  2.78614761562966812E-06
  2.92888814986142756E-06  3.07893871574726412E-06  3.23667345027066716E-06
  3.40248562174757123E-06  3.57678860673641189E-06  3.76001691672634214E-06
  3.95262727713169988E-06  4.15509976124872330E-06  4.36793898196447659E-06
  4.59167534414899642E-06  4.82686636080952829E-06  5.07409803624105405E-06
  5.33398631957048528E-06  5.60717863226306118E-06  5.89435547333937179E-06
  6.19623210624029082E-06  6.51356033147508551E-06  6.84713034939627497E-06
  7.19777271766323523E-06  7.56636040818562012E-06  7.95381096857887752E-06
  8.36108879341618602E-06  8.78920751082698112E-06  9.23923249027022416E-06
  9.71228347760281582E-06  1.02095373638703775E-05  1.07322310945691399E-05
  1.12816647264657123E-05  1.18592046394155233E-05  1.24662869109929874E-05
  1.31044208621361910E-05  1.37751927824187258E-05  1.44802698439903264E-05
  1.52214042136789270E-05  1.60004373732192995E-05  1.68193046580690491E-05
  1.76800400257933217E-05  1.85847810655445886E-05  1.95357742607360594E-05
  2.05353805176077143E-05  2.15860809730123186E-05  2.26904830954094143E-05
  2.38513270937459207E-05  2.50714926496294322E-05  2.63540059889638775E-05
  2.77020473099952938E-05  2.91189585855707107E-05  3.06082517582890434E-05
  3.21736173481305409E-05  3.38189334931175768E-05  3.55482754445659248E-05
  3.73659255395425004E-05  3.92763836742511169E-05  4.12843783032264657E-05
  4.33948779904303641E-05  4.56131035396152955E-05  4.79445407326512215E-05
  5.03949537059056904E-05  5.29703989962265436E-05  5.56772402896039923E-05
  5.85221639071881284E-05  6.15121950650121877E-05  6.46547149455220635E-05
  6.79574786208463522E-05  7.14286338696586197E-05  7.50767409314883613E-05
  7.89107932444352273E-05  8.29402392144360087E-05  8.71750050665255730E-05
  9.16255188309327294E-05  9.63027355193569822E-05  1.01218163549393476E-04
  1.06383892477808942E-04  1.11812622106230618E-04  1.17517693025799311E-04
  1.23513118670453924E-04  1.29813618951772809E-04  1.36434655551696831E-04
  1.43392468953006526E-04  1.50704117291129241E-04  1.58387517114762184E-04
  1.66461486146697813E-04  1.74945788140460853E-04  1.83861179932927479E-04
  1.93229460797479766E-04  2.03073524207045243E-04  2.13417412121327658E-04
  2.24286371917681602E-04  2.35706916090456121E-04  2.47706884849205073E-04
  2.60315511751975977E-04  2.73563492515917098E-04  2.87483057153725273E-04
  3.02108045590970928E-04  3.17473986926105104E-04  3.33618182501991536E-04
  3.50579792965091056E-04  3.68399929495992430E-04  3.87121749402832306E-04
  4.06790556277265977E-04  4.27453904921069937E-04  4.49161711260164269E-04
  4.71966367471860057E-04  4.95922862560442654E-04  5.21088908625831431E-04
  5.47525073079982807E-04  5.75294917075967424E-04  6.04465140425195120E-04
  6.35105733289163289E-04  6.67290134943291204E-04  7.01095399921918385E-04
  7.36602371865477802E-04  7.73895865403025746E-04  8.13064856414766205E-04
  8.54202681033532497E-04  8.97407243756391396E-04  9.42781235050804949E-04
  9.90432358853406049E-04  1.04047357037326802E-03  1.09302332462553418E-03
  1.14820583613551457E-03  1.20615135026772729E-03  1.26699642664888728E-03
  1.33088423516850777E-03  1.39796486505543052E-03  1.46839564754339038E-03
  1.54234149265334891E-03  1.61997524063499094E-03  1.70147802862422341E-03
  1.78703967308776676E-03  1.87685906863985859E-03  1.97114460382971602E-03
  2.07011459451143407E-03  2.17399773542056819E-03  2.28303357059340961E-03
  2.39747298327606636E-03  2.51757870598035439E-03  2.64362585135257061E-03
  2.77590246452879370E-03  2.91471009765655910E-03  3.06036440726748047E-03
  3.21319577518836908E-03  3.37354995367628984E-03  3.54178873546506139E-03
  3.71829064940477644E-03  3.90345168236791483E-03  4.09768602808542690E-03
  4.30142686356199851E-03  4.51512715370139175E-03  4.73926048475024116E-03
  4.97432192714118097E-03  5.22082892828352324E-03  5.47932223581114580E-03
  5.75036685175232126E-03  6.03455301803447735E-03  6.33249723367737376E-03
  6.64484330396063975E-03  6.97226342177498758E-03  7.31545928128000868E-03
  7.67516322389475824E-03  8.05213941653883450E-03  8.44718506192104757E-03
  8.86113164053880208E-03  9.29484618390273923E-03  9.74923257833726700E-03
  1.02252328985268873E-02  1.07238287697793352E-02  1.12460427577587858E-02
  1.17929397842020285E-02  1.23656285668699330E-02  1.29652630817086827E-02
  1.35930440448742001E-02  1.42502204119406336E-02  1.49380908912476792E-02
  1.56580054679436032E-02  1.64113669348506415E-02  1.71996324258143866E-02
  1.80243149466963667E-02  1.88869848986280703E-02  1.97892715875607195E-02
  2.07328647135187651E-02  2.17195158322914528E-02  2.27510397815741845E-02
  2.38293160627979575E-02  2.49562901690574858E-02  2.61339748486637234E-02
  2.73644512929038138E-02  2.86498702355851877E-02  2.99924529508717660E-02
  3.13944921347828199E-02  3.28583526545195986E-02  3.43864721485071939E-02
  3.59813614586874386E-02  3.76456048751721284E-02  3.93818601718605235E-02
  4.11928584100181433E-02  4.30814034851744812E-02  4.50503713910515372E-02
  4.71027091722051525E-02  4.92414335352791832E-02  5.14696290867755063E-02
  5.37904461631707811E-02  5.62070982170719685E-02  5.87228587208932923E-02
  6.13410575472579031E-02  6.40650767829915591E-02  6.68983459311830453E-02
  6.98443364533488792E-02  7.29065556012729321E-02  7.60885394855983360E-02
  7.93938453257544141E-02  8.28260428233163204E-02  8.63887045984420426E-02
  9.00853956266342848E-02  9.39196616107571963E-02  9.78950162210337621E-02
  1.02014927133689745E-01  1.06282800797033380E-01  1.10701965852112102E-01
  1.15275655133709354E-01  1.20006986176401403E-01  1.24898940149685805E-01
  1.29954339145802289E-01  1.35175821745106617E-01  1.40565816783701086E-01
  1.46126515249858396E-01  1.51859840238482452E-01  1.57767414896017921E-01
  1.63850528292506070E-01  1.70110099162927297E-01  1.76546637466648504E-01
  1.83160203721894982E-01  1.89950366081818006E-01  1.96916155130097137E-01
  2.04056016387294592E-01  2.11367760534532517E-01  2.18848511378690713E-01
  2.26494651603463659E-01  2.34301766373423509E-01  2.42264584884017892E-01
  2.50376919979350687E-01  2.58631605991933577E-01  2.67020434994613864E-01
  2.75534091694770999E-01  2.84162087244975659E-01  2.92892692292783419E-01
  3.01712869645487658E-01  3.10608206983651713E-01  3.19562850120184261E-01
  3.28559437371793162E-01  3.37579035681381145E-01  3.46601079210342944E-01
  3.55603311205623496E-01  3.64561730037235132E-01  3.73450540398890307E-01
  3.82242110766990661E-01  3.90906938321326392E-01  3.99413622644159971E-01
  4.07728849632472190E-01  4.15817387180552833E-01  4.23642094316024842E-01
  4.31163945601008403E-01  4.38342072740303124E-01  4.45133825468886579E-01
  4.51494853920137995E-01  4.57379214802110856E-01  4.62739503829708076E-01
  4.67527016973291021E-01  4.71691943186088536E-01  4.75183591360548552E-01
  4.77950654333672398E-01  4.79941512809204773E-01  4.81104582085606192E-01
  4.81388704469914830E-01  4.80743590209674998E-01  4.79120309663218169E-01
  4.76471839313069911E-01  4.72753664010908570E-01  4.67924437572370178E-01
  4.61946703496716626E-01  4.54787677157194481E-01  4.46420090284697257E-01
  4.36823097940206795E-01  4.25983247430160417E-01  4.13895507753105185E-01
  4.00564357165395180E-01  3.86004925308302604E-01  3.70244185039079410E-01
  3.53322187645648544E-01  3.35293333490909673E-01  3.16227668322323574E-01
  2.96212193491258380E-01  2.75352176153301209E-01  2.53772443167028183E-01
  2.31618639880217220E-01  2.09058432299526725E-01  1.86282628297872538E-01
  1.63506190545259500E-01  1.40969110783545210E-01  1.18937111947026122E-01
  9.77021414595498072E-02  7.75826159814206606E-02  5.89233749153444120E-02
  4.20952971203426007E-02  2.74945320588962511E-02  1.55412823389627294E-02
  6.67787932091245054E-03  1.36286925102192466E-03 -2.60916380285166991E-05
 -1.87107047788767668E-06 -1.32228268764220260E-07 -9.21045703112676626E-09
 -6.32154003361207129E-10 -4.27156850966520795E-11 -2.83759390643740878E-12
 -1.84904247641381679E-13 -1.17795771363074274E-14 -7.29969979597835467E-16
 -4.36536357077031510E-17 -2.48579327041720562E-18 -1.31443038542038014E-19
 -6.09944200532233912E-21 -2.06703096284950012E-22  7.20533886142868053E-25
  1.06765178097097870E-24  1.41990412785276175E-25  1.43426185364174406E-26
  1.28894596240952340E-27  1.08410541349735790E-28  8.72907091733719485E-30
  6.80962693166755465E-31  5.18289170782303681E-32  3.86535670052334480E-33
  2.83244376208066289E-34  2.04279138610005758E-35  0.00000000000000000E+00
  0.00000000000000000E+00  0.00000000000000000E+00  0.00000000000000000E+00
  0.00000000000000000E+00  0.00000000000000000E+00  0.00000000000000000E+00
  0.00000000000000000E+00  0.00000000000000000E+00  0.00000000000000000E+00
  0.00000000000000000E+00  0.00000000000000000E+00  0.00000000000000000E+00
  0.00000000000000000E+00  0.00000000000000000E+00  0.00000000000000000E+00
  0.00000000000000000E+00  0.00000000000000000E+00  0.00000000000000000E+00
  0.00000000000000000E+00  0.00000000000000000E+00  0.00000000000000000E+00
  0.00000000000000000E+00  0.00000000000000000E+00  0.00000000000000000E+00
  0.00000000000000000E+00  0.00000000000000000E+00  0.00000000000000000E+00
  0.00000000000000000E+00  0.00000000000000000E+00  0.00000000000000000E+00
  0.00000000000000000E+00  0.00000000000000000E+00  0.00000000000000000E+00
  0.00000000000000000E+00  0.00000000000000000E+00  0.00000000000000000E+00
  0.00000000000000000E+00  0.00000000000000000E+00  0.00000000000000000E+00
  0.00000000000000000E+00  0.00000000000000000E+00  0.00000000000000000E+00
  0.00000000000000000E+00  0.00000000000000000E+00  0.00000000000000000E+00
  0.00000000000000000E+00  0.00000000000000000E+00  0.00000000000000000E+00
  0.00000000000000000E+00  0.00000000000000000E+00  0.00000000000000000E+00
  0.00000000000000000E+00  0.00000000000000000E+00  0.00000000000000000E+00
  0.00000000000000000E+00  0.00000000000000000E+00  0.00000000000000000E+00
  0.00000000000000000E+00  0.00000000000000000E+00  0.00000000000000000E+00
  0.00000000000000000E+00  0.00000000000000000E+00  0.00000000000000000E+00
  0.00000000000000000E+00  0.00000000000000000E+00  0.00000000000000000E+00
  0.00000000000000000E+00  0.00000000000000000E+00  0.00000000000000000E+00
  0.00000000000000000E+00  0.00000000000000000E+00  0.00000000000000000E+00
  0.00000000000000000E+00  0.00000000000000000E+00  0.00000000000000000E+00
  0.00000000000000000E+00  0.00000000000000000E+00  0.00000000000000000E+00
  0.00000000000000000E+00  0.00000000000000000E+00  0.00000000000000000E+00
  0.00000000000000000E+00  0.00000000000000000E+00  0.00000000000000000E+00
  0.00000000000000000E+00  0.00000000000000000E+00  0.00000000000000000E+00
  0.00000000000000000E+00  0.00000000000000000E+00  0.00000000000000000E+00
  0.00000000000000000E+00  0.00000000000000000E+00  0.00000000000000000E+00
  0.00000000000000000E+00  0.00000000000000000E+00  0.00000000000000000E+00
  0.00000000000000000E+00  0.00000000000000000E+00  0.00000000000000000E+00
  0.00000000000000000E+00  0.00000000000000000E+00  0.00000000000000000E+00
  0.00000000000000000E+00  0.00000000000000000E+00  0.00000000000000000E+00
  0.00000000000000000E+00  0.00000000000000000E+00  0.00000000000000000E+00
  0.00000000000000000E+00  0.00000000000000000E+00  0.00000000000000000E+00
  0.00000000000000000E+00  0.00000000000000000E+00  0.00000000000000000E+00
  0.00000000000000000E+00  0.00000000000000000E+00  0.00000000000000000E+00
  0.00000000000000000E+00  0.00000000000000000E+00  0.00000000000000000E+00
  0.00000000000000000E+00  0.00000000000000000E+00  0.00000000000000000E+00
  0.00000000000000000E+00  0.00000000000000000E+00  0.00000000000000000E+00
  0.00000000000000000E+00  0.00000000000000000E+00  0.00000000000000000E+00
  0.00000000000000000E+00  0.00000000000000000E+00  0.00000000000000000E+00
  0.00000000000000000E+00  0.00000000000000000E+00  0.00000000000000000E+00
  0.00000000000000000E+00  0.00000000000000000E+00  0.00000000000000000E+00
  0.00000000000000000E+00  0.00000000000000000E+00  0.00000000000000000E+00
  0.00000000000000000E+00  0.00000000000000000E+00  0.00000000000000000E+00
  0.00000000000000000E+00  0.00000000000000000E+00  0.00000000000000000E+00
  0.00000000000000000E+00  0.00000000000000000E+00  0.00000000000000000E+00
  0.00000000000000000E+00  0.00000000000000000E+00  0.00000000000000000E+00
  0.00000000000000000E+00  0.00000000000000000E+00  0.00000000000000000E+00
  0.00000000000000000E+00  0.00000000000000000E+00  0.00000000000000000E+00
  0.00000000000000000E+00  0.00000000000000000E+00  0.00000000000000000E+00
                       </PP_QIJL.3.4.2>
 <PP_QIJL.4.4.0 type="real" size="   999" columns="3" first_index=" 4" second_index=" 4" composite_index="10" angular_momentum="0">
 -8.55757816982782199E-09 -8.77421429138543521E-09 -8.99633458240826297E-09
 -9.22407787530409145E-09 -9.45758651703971375E-09 -9.69700645811235910E-09
 -9.94248734377353157E-09 -1.01941826075620790E-08 -1.04522495672051657E-08
 -1.07168495229470698E-08 -1.09881478583668977E-08 -1.12663141437487428E-08
 -1.15515222420686735E-08 -1.18439504176646959E-08 -1.21437814476577554E-08
 -1.24512027361933194E-08 -1.27664064315751537E-08 -1.30895895463641218E-08
 -1.34209540805174565E-08 -1.37607071476454420E-08 -1.41090611044638905E-08
 -1.44662336835240846E-08 -1.48324481293027498E-08 -1.52079333377369654E-08
 -1.55929239992916571E-08 -1.59876607456486636E-08 -1.63923903001093624E-08
 -1.68073656318046912E-08 -1.72328461138091369E-08 -1.76690976852572731E-08
 -1.81163930175642384E-08 -1.85750116848544004E-08 -1.90452403387039810E-08
 -1.95273728873077720E-08 -2.00217106791812976E-08 -2.05285626915131527E-08
 -2.10482457232860026E-08 -2.15810845932860367E-08 -2.21274123431252276E-08
 -2.26875704454033580E-08 -2.32619090171389979E-08 -2.38507870386043583E-08
 -2.44545725776993586E-08 -2.50736430200059607E-08 -2.57083853046666483E-08
 -2.63591961662333866E-08 -2.70264823826399818E-08 -2.77106610294511737E-08
 -2.84121597405484196E-08 -2.91314169754150426E-08 -2.98688822931871633E-08
 -3.06250166336431097E-08 -3.14002926053053054E-08 -3.21951947808360655E-08
 -3.30102199999111275E-08 -3.38458776797603329E-08 -3.47026901335698731E-08
 -3.55811928969449736E-08 -3.64819350626367211E-08 -3.74054796237430255E-08
 -3.83524038255970755E-08 -3.93232995265644243E-08 -4.03187735679736041E-08
 -4.13394481534112600E-08 -4.23859612376198441E-08 -4.34589669252392624E-08
 -4.45591358796437576E-08 -4.56871557421278544E-08 -4.68437315617042702E-08
 -4.80295862357824811E-08 -4.92454609620023799E-08 -5.04921157015068901E-08
 -5.17703296539419355E-08 -5.30809017444812279E-08 -5.44246511231803128E-08
 -5.58024176769713395E-08 -5.72150625546192932E-08 -5.86634687049678642E-08
 -6.01485414288103310E-08 -6.16712089447320537E-08 -6.32324229692762150E-08
 -6.48331593117973310E-08 -6.64744184843735123E-08 -6.81572263271578785E-08
 -6.98826346495622242E-08 -7.16517218876707482E-08 -7.34655937782972131E-08
 -7.53253840501059407E-08 -7.72322551322279029E-08 -7.91873988808166255E-08
 -8.11920373239955206E-08 -8.32474234256645129E-08 -8.53548418686426284E-08
 -8.75156098576350456E-08 -8.97310779425286190E-08 -9.20026308625275633E-08
 -9.43316884116598325E-08 -9.67197063261931696E-08 -9.91681771945165356E-08
 -1.01678631390055461E-07 -1.04252638027802716E-07 -1.06891805945065744E-07
 -1.09597784707040514E-07 -1.12372265637841317E-07 -1.15216982877632799E-07
 -1.18133714466520984E-07 -1.21124283455884793E-07 -1.24190559047840307E-07
 -1.27334457763551005E-07 -1.30557944641114135E-07 -1.33863034463769812E-07
 -1.37251793019204573E-07 -1.40726338390733302E-07 -1.44288842281167172E-07
 -1.47941531370196340E-07 -1.51686688706133391E-07 -1.55526655132889973E-07
 -1.59463830753077217E-07 -1.63500676428144680E-07 -1.67639715316494929E-07
 -1.71883534450535484E-07 -1.76234786353654765E-07 -1.80696190698130557E-07
 -1.85270536005009911E-07 -1.89960681387021156E-07 -1.94769558335605863E-07
 -1.99700172553192437E-07 -2.04755605831852218E-07 -2.09939017979513791E-07
 -2.15253648794940815E-07 -2.20702820092703306E-07 -2.26289937779414499E-07
 -2.32018493982526159E-07 -2.37892069233014167E-07 -2.43914334703318790E-07
 -2.50089054501940707E-07 -2.56420088026119496E-07 -2.62911392374075938E-07
 -2.69567024818316732E-07 -2.76391145341551345E-07 -2.83388019236808031E-07
 -2.90562019773367121E-07 -2.97917630930186637E-07 -3.05459450198522236E-07
 -3.13192191455495853E-07 -3.21120687910410451E-07 -3.29249895125646012E-07
 -3.37584894114034776E-07 -3.46130894514642452E-07 -3.54893237848945878E-07
 -3.63877400859442395E-07 -3.73088998932770396E-07 -3.82533789609492144E-07
 -3.92217676182722624E-07 -4.02146711387858416E-07 -4.12327101185714627E-07
 -4.22765208641424541E-07 -4.33467557901540955E-07 -4.44440838271813029E-07
 -4.55691908398192001E-07 -4.67227800553683093E-07 -4.79055725033709695E-07
 -4.91183074662754116E-07 -5.03617429415079758E-07 -5.16366561152424720E-07
 -5.29438438481637181E-07 -5.42841231735267771E-07 -5.56583318078256994E-07
 -5.70673286743892150E-07 -5.85119944402312747E-07 -5.99932320664920967E-07
 -6.15119673728128312E-07 -6.30691496159980084E-07 -6.46657520833264690E-07
 -6.63027727008815219E-07 -6.79812346572818456E-07 -6.97021870432004893E-07
 -7.14667055070743706E-07 -7.32758929274123987E-07 -7.51308801021229889E-07
 -7.70328264552920760E-07 -7.89829207618522524E-07 -8.09823818905972849E-07
 -8.30324595660060250E-07 -8.51344351493506653E-07 -8.72896224395802828E-07
 -8.94993684944763469E-07 -9.17650544725971587E-07 -9.40880964965351957E-07
 -9.64699465380272180E-07 -9.89120933254719750E-07 -1.01416063274419117E-06
 -1.03983421441615279E-06 -1.06615772503199912E-06 -1.09314761757664796E-06
 -1.12082076154203074E-06 -1.14919445347088683E-06 -1.17828642776749465E-06
 -1.20811486778205574E-06 -1.23869841717567693E-06 -1.27005619157306049E-06
 -1.30220779051015639E-06 -1.33517330968428806E-06 -1.36897335351435943E-06
 -1.40362904801903613E-06 -1.43916205402092671E-06 -1.47559458068499886E-06
 -1.51294939939974332E-06 -1.55124985800971281E-06 -1.59051989540834582E-06
 -1.63078405650022112E-06 -1.67206750754203123E-06 -1.71439605187193997E-06
 -1.75779614603710335E-06 -1.80229491632943003E-06 -1.84792017573997364E-06
 -1.89470044134245738E-06 -1.94266495211689179E-06 -1.99184368722436749E-06
 -2.04226738474444643E-06 -2.09396756088690643E-06 -2.14697652968976670E-06
 -2.20132742321599091E-06 -2.25705421226143321E-06 -2.31419172758697558E-06
 -2.37277568168817292E-06 -2.43284269111591242E-06 -2.49443029936215667E-06
 -2.55757700032496915E-06 -2.62232226236755718E-06 -2.68870655298635105E-06
 -2.75677136410346667E-06 -2.82655923799948703E-06 -2.89811379390265273E-06
 -2.97147975525114039E-06 -3.04670297764546122E-06 -3.12383047750839126E-06
 -3.20291046147043364E-06 -3.28399235649911632E-06 -3.36712684079094060E-06
 -3.45236587544537644E-06 -3.53976273694055121E-06 -3.62937205043106139E-06
 -3.72124982388866085E-06 -3.81545348310714381E-06 -3.91204190759331573E-06
 -4.01107546736649386E-06 -4.11261606068950900E-06 -4.21672715275476568E-06
 -4.32347381534964818E-06 -4.43292276752586733E-06 -4.54514241729835119E-06
 -4.66020290439961683E-06 -4.77817614411636043E-06 -4.89913587223574444E-06
 -5.02315769112927457E-06 -5.15031911700332317E-06 -5.28069962834555644E-06
 -5.41438071559773656E-06 -5.55144593208587398E-06 -5.69198094623945199E-06
 -5.83607359513256399E-06 -5.98381393938018910E-06 -6.13529431942405241E-06
 -6.29060941324325231E-06 -6.44985629552553337E-06 -6.61313449833641760E-06
 -6.78054607332393195E-06 -6.95219565549780732E-06 -7.12819052862313773E-06
 -7.30864069226916125E-06 -7.49365893055518756E-06 -7.68336088263655984E-06
 -7.87786511497476369E-06 -8.07729319543670025E-06 -8.28176976926953010E-06
 -8.49142263699859010E-06 -8.70638283429679650E-06 -8.92678471387578013E-06
 -9.15276602944973825E-06 -9.38446802182425839E-06 -9.62203550716435287E-06
 -9.86561696749642935E-06 -1.01153646435009009E-05 -1.03714346296534508E-05
 -1.06339869717742411E-05 -1.09031857670461809E-05 -1.11791992665644349E-05
 -1.14621999804816590E-05 -1.17523647858142942E-05 -1.20498750369772313E-05
 -1.23549166791162342E-05 -1.26676803643085497E-05 -1.29883615707045071E-05
 -1.33171607246843243E-05 -1.36542833261065760E-05 -1.39999400767266100E-05
 -1.43543470118647676E-05 -1.47177256354070032E-05 -1.50903030582221022E-05
 -1.54723121400818179E-05 -1.58639916351727866E-05 -1.62655863412906594E-05
 -1.66773472528101992E-05 -1.70995317175265285E-05 -1.75324035974653111E-05
 -1.79762334337626341E-05 -1.84312986157172232E-05 -1.88978835541209150E-05
 -1.93762798589752194E-05 -1.98667865217050743E-05 -2.03697101019836171E-05
 -2.08853649192845322E-05 -2.14140732492816625E-05 -2.19561655252184144E-05
 -2.25119805443724145E-05 -2.30818656797448661E-05 -2.36661770971061315E-05
 -2.42652799775335911E-05 -2.48795487455802494E-05 -2.55093673032165175E-05
 -2.61551292696914439E-05 -2.68172382274628768E-05 -2.74961079743502002E-05
 -2.81921627820669333E-05 -2.89058376612942393E-05 -2.96375786334611947E-05
 -3.03878430094012237E-05 -3.11570996750583682E-05 -3.19458293844222246E-05
 -3.27545250598733722E-05 -3.35836921001276628E-05 -3.44338486959707606E-05
 -3.53055261539800397E-05 -3.61992692284363285E-05 -3.71156364616315732E-05
 -3.80552005327854190E-05 -3.90185486157881929E-05 -4.00062827459926986E-05
 -4.10190201962847909E-05 -4.20573938626659659E-05 -4.31220526595894015E-05
 -4.42136619252954846E-05 -4.53329038373991087E-05 -4.64804778389890010E-05
 -4.76571010755030372E-05 -4.88635088426535083E-05 -5.01004550456805845E-05
 -5.13687126702201062E-05 -5.26690742650801289E-05 -5.40023524372255920E-05
 -5.53693803592806771E-05 -5.67710122898651390E-05 -5.82081241070871042E-05
 -5.96816138555273835E-05 -6.11924023070530612E-05 -6.27414335358123264E-05
 -6.43296755077669242E-05 -6.59581206851296223E-05 -6.76277866460838791E-05
 -6.93397167201701461E-05 -7.10949806397360615E-05 -7.28946752078544959E-05
 -7.47399249831259593E-05 -7.66318829817917604E-05 -7.85717313975938604E-05
 -8.05606823398306621E-05 -8.25999785900671205E-05 -8.46908943779691364E-05
 -8.68347361767471014E-05 -8.90328435187003476E-05 -9.12865898313719562E-05
 -9.35973832948333237E-05 -9.59666677206297600E-05 -9.83959234529362527E-05
 -1.00886668292481070E-04 -1.03440458443812290E-04 -1.06058889486496780E-04
 -1.08743597370852355E-04 -1.11496259438834800E-04 -1.14318595470710906E-04
 -1.17212368758169374E-04 -1.20179387204535039E-04 -1.23221504452768746E-04
 -1.26340621041954665E-04 -1.29538685592990479E-04 -1.32817696024217427E-04
 -1.36179700797744378E-04 -1.39626800197237256E-04 -1.43161147637968359E-04
 -1.46784951009934928E-04 -1.50500474054882316E-04 -1.54310037778082886E-04
 -1.58216021895745258E-04 -1.62220866318952395E-04 -1.66327072675044227E-04
 -1.70537205867389417E-04 -1.74853895674511407E-04 -1.79279838389553815E-04
 -1.83817798501107648E-04 -1.88470610416431177E-04 -1.93241180228133011E-04
 -1.98132487525409725E-04 -2.03147587250955151E-04 -2.08289611604690352E-04
 -2.13561771995489206E-04 -2.18967361042104504E-04 -2.24509754624529519E-04
 -2.30192413987060122E-04 -2.36018887894356213E-04 -2.41992814841828841E-04
 -2.48117925321718401E-04 -2.54398044146258182E-04 -2.60837092829353833E-04
 -2.67439092028247123E-04 -2.74208164046663692E-04 -2.81148535400986565E-04
 -2.88264539451034017E-04 -2.95560619097055084E-04 -3.03041329544605676E-04
 -3.10711341138996419E-04 -3.18575442271058784E-04 -3.26638542356005672E-04
 -3.34905674887220686E-04 -3.43382000566840235E-04 -3.52072810515053226E-04
 -3.60983529560077317E-04 -3.70119719610831344E-04 -3.79487083114362744E-04
 -3.89091466600144419E-04 -3.98938864313407135E-04 -4.09035421939727382E-04
 -4.19387440423140626E-04 -4.30001379880110772E-04 -4.40883863611742002E-04
 -4.52041682216674622E-04 -4.63481797807170713E-04 -4.75211348330950741E-04
 -4.87237652001415867E-04 -4.99568211838935647E-04 -5.12210720325968500E-04
 -5.25173064178831393E-04 -5.38463329239011689E-04 -5.52089805486988814E-04
 -5.66060992181590316E-04 -5.80385603127996216E-04 -5.95072572077571171E-04
 -6.10131058262783246E-04 -6.25570452070547543E-04 -6.41400380857411775E-04
 -6.57630714910079571E-04 -6.74271573554866628E-04 -6.91333331419739989E-04
 -7.08826624852719337E-04 -7.26762358500469483E-04 -7.45151712051032389E-04
 -7.64006147144725783E-04 -7.83337414457339920E-04 -8.03157560959857539E-04
 -8.23478937359022100E-04 -8.44314205723178382E-04 -8.65676347297929900E-04
 -8.87578670516234961E-04 -9.10034819207709692E-04 -9.33058781011976836E-04
 -9.56664896001051539E-04 -9.80867865515839404E-04 -1.00568276122196040E-03
 -1.03112503439023321E-03 -1.05721052540725681E-03 -1.08395547352168340E-03
 -1.11137652683187659E-03 -1.13949075252080105E-03 -1.16831564734411111E-03
 -1.19786914837755076E-03 -1.22816964402990003E-03 -1.25923598532787662E-03
 -1.29108749747950833E-03 -1.32374399172267019E-03 -1.35722577746561087E-03
 -1.39155367472645571E-03 -1.42674902687882832E-03 -1.46283371371089049E-03
 -1.49983016480525729E-03 -1.53776137324742809E-03 -1.57665090967050404E-03
 -1.61652293664418367E-03 -1.65740222341615199E-03 -1.69931416101419801E-03
 -1.74228477771753943E-03 -1.78634075490603718E-03 -1.83150944329617347E-03
 -1.87781887957282610E-03 -1.92529780342609157E-03 -1.97397567500260046E-03
 -2.02388269278094271E-03 -2.07504981188105612E-03 -2.12750876281759789E-03
 -2.18129207070755834E-03 -2.23643307494255901E-03 -2.29296594933649277E-03
 -2.35092572275940638E-03 -2.41034830026868371E-03 -2.47127048474887713E-03
 -2.53372999907169535E-03 -2.59776550878791472E-03 -2.66341664536320476E-03
 -2.73072402997004979E-03 -2.79972929784825858E-03 -2.87047512324667279E-03
 -2.94300524495902990E-03 -3.01736449246709903E-03 -3.09359881270445660E-03
 -3.17175529745455063E-03 -3.25188221139686463E-03 -3.33402902081528490E-03
 -3.41824642298302773E-03 -3.50458637623865229E-03 -3.59310213076798491E-03
 -3.68384826010702531E-03 -3.77688069338105378E-03 -3.87225674829554719E-03
 -3.97003516489457132E-03 -4.07027614010268927E-03 -4.17304136306660602E-03
 -4.27839405131294395E-03 -4.38639898773887996E-03 -4.49712255845248141E-03
 -4.61063279147988850E-03 -4.72699939635660722E-03 -4.84629380462048287E-03
 -4.96858921122400685E-03 -5.09396061688393784E-03 -5.22248487138624647E-03
 -5.35424071786469620E-03 -5.48930883807147336E-03 -5.62777189865839092E-03
 -5.76971459848748050E-03 -5.91522371698971657E-03 -6.06438816359086957E-03
 -6.21729902822356403E-03 -6.37404963294461568E-03 -6.53473558467693172E-03
 -6.69945482909509778E-03 -6.86830770567404929E-03 -7.04139700391998372E-03
 -7.21882802080281091E-03 -7.40070861940933696E-03 -7.58714928883629132E-03
 -7.77826320534213966E-03 -7.97416629477667657E-03 -8.17497729630697369E-03
 -8.38081782745822568E-03 -8.59181245048773121E-03 -8.80808874010991991E-03
 -9.02977735259004322E-03 -9.25701209622380519E-03 -9.48993000321961440E-03
 -9.72867140299986388E-03 -9.97337999693696971E-03 -1.02242029345392636E-02
 -1.04812908911012873E-02 -1.07447981468322459E-02 -1.10148826674754761E-02
 -1.12917061864310532E-02 -1.15754342883925380E-02 -1.18662364945079993E-02
 -1.21642863490740195E-02 -1.24697615077704778E-02 -1.27828438274422487E-02
 -1.31037194574327599E-02 -1.34325789324725321E-02 -1.37696172671243396E-02
 -1.41150340517847989E-02 -1.44690335502398945E-02 -1.48318247987704824E-02
 -1.52036217068009065E-02 -1.55846431590818818E-02 -1.59751131193960547E-02
 -1.63752607357719598E-02 -1.67853204471890040E-02 -1.72055320917531111E-02
 -1.76361410163194676E-02 -1.80773981875348017E-02 -1.85295603042683679E-02
 -1.89928899113962178E-02 -1.94676555148994707E-02 -1.99541316982326453E-02
 -2.04525992399130843E-02 -2.09633452322776984E-02 -2.14866632013474522E-02
 -2.20228532277346317E-02 -2.25722220685213547E-02 -2.31350832800318214E-02
 -2.37117573414136161E-02 -2.43025717789361155E-02 -2.49078612909067083E-02
 -2.55279678730971175E-02 -2.61632409445636087E-02 -2.68140374737361950E-02
 -2.74807221046418255E-02 -2.81636672831170956E-02 -2.88632533828549372E-02
 -2.95798688311189710E-02 -3.03139102339471354E-02 -3.10657825006540045E-02
 -3.18358989674279308E-02 -3.26246815198058607E-02 -3.34325607137935729E-02
 -3.42599758953845146E-02 -3.51073753182140486E-02 -3.59752162590692287E-02
 -3.68639651309565844E-02 -3.77740975934114792E-02 -3.87060986597150269E-02
 -3.96604628006616555E-02 -4.06376940444998849E-02 -4.16383060726471521E-02
 -4.26628223107550983E-02 -4.37117760146779957E-02 -4.47857103508702281E-02
 -4.58851784707125093E-02 -4.70107435782378749E-02 -4.81629789906990596E-02
 -4.93424681913879060E-02 -5.05498048740849817E-02 -5.17855929784844723E-02
 -5.30504467159031851E-02 -5.43449905845465528E-02 -5.56698593735658123E-02
 -5.70256981551006195E-02 -5.84131622634591202E-02 -5.98329172605452306E-02
 -6.12856388865961610E-02 -6.27720129952474143E-02 -6.42927354718922373E-02
 -6.58485121342532176E-02 -6.74400586140288388E-02 -6.90681002184244386E-02
 -7.07333717703194087E-02 -7.24366174257629891E-02 -7.41785904674300001E-02
 -7.59600530726024376E-02 -7.77817760541858194E-02 -7.96445385731888861E-02
 -8.15491278210320469E-02 -8.34963386699760640E-02 -8.54869732898878715E-02
 -8.75218407294839906E-02 -8.96017564601115923E-02 -9.17275418800465037E-02
 -9.39000237772031204E-02 -9.61200337480653116E-02 -9.83884075705599298E-02
 -1.00705984528502851E-01 -1.03073606685156915E-01 -1.05492118103346036E-01
 -1.07962364009473455E-01 -1.10485189898696240E-01 -1.13061440578406946E-01
 -1.15691959147074641E-01 -1.18377585905395807E-01 -1.21119157196601587E-01
 -1.23917504172668128E-01 -1.26773451483070343E-01 -1.29687815882618518E-01
 -1.32661404754813639E-01 -1.35695014547054432E-01 -1.38789429113931495E-01
 -1.41945417964738307E-01 -1.45163734411239559E-01 -1.48445113611654578E-01
 -1.51790270506696773E-01 -1.55199897643442247E-01 -1.58674662882719752E-01
 -1.62215206985639571E-01 -1.65822141074812190E-01 -1.69496043965749826E-01
 -1.73237459363894258E-01 -1.77046892922679944E-01 -1.80924809158009986E-01
 -1.84871628214515998E-01 -1.88887722478972175E-01 -1.92973413036255786E-01
 -1.97128965963282610E-01 -2.01354588456409328E-01 -2.05650424787871766E-01
 -2.10016552086940700E-01 -2.14452975941608032E-01 -2.18959625816784603E-01
 -2.23536350285187618E-01 -2.28182912067331767E-01 -2.32898982877311589E-01
 -2.37684138071379419E-01 -2.42537851096687712E-01 -2.47459487737977185E-01
 -2.52448300160457606E-01 -2.57503420747662970E-01 -2.62623855733646550E-01
 -2.67808478629530555E-01 -2.73056023445164220E-01 -2.78365077707452502E-01
 -2.83734075277807862E-01 -2.89161288972156594E-01 -2.94644822988012700E-01
 -3.00182605144301673E-01 -3.05772378940912692E-01 -3.11411695446350278E-01
 -3.17097905023381643E-01 -3.22828148904228618E-01 -3.28599350628636155E-01
 -3.34408207360082421E-01 -3.40251181097472433E-01 -3.46124489801902024E-01
 -3.52024098460476664E-01 -3.57945710111753856E-01 -3.63884756860131942E-01
 -3.69836390909459078E-01 -3.75795475649275346E-01 -3.81756576830448668E-01
 -3.87713953870510830E-01 -3.93661551332776860E-01 -3.99592990627319622E-01
 -4.05501561986184922E-01 -4.11380216769264007E-01 -4.17221560162335747E-01
 -4.23017844333615889E-01 -4.28760962120140088E-01 -4.34442441320722905E-01
 -4.40053439677788483E-01 -4.45584740636166543E-01 -4.51026749972926189E-01
 -4.56369493398509352E-01 -4.61602615235782554E-01 -4.66715378290137095E-01
 -4.71696665030419460E-01 -4.76534980207231784E-01 -4.81218455041949766E-01
 -4.85734853126685906E-01 -4.90071578182242951E-01 -4.94215683827902597E-01
 -4.98153885523534290E-01 -5.01872574850972697E-01 -5.05357836307815167E-01
 -5.08595466792622575E-01 -5.11570997965908436E-01 -5.14269721676143376E-01
 -5.16676718644173638E-01 -5.18776890602946295E-01 -5.20554996092446709E-01
 -5.21995690108368882E-01 -5.23083567806239214E-01 -5.23803212460752232E-01
 -5.24139247876146741E-01 -5.24076395438958675E-01 -5.23599535997525400E-01
 -5.22693776743305416E-01 -5.21344523257167514E-01 -5.19537556869021366E-01
 -5.17259117461201789E-01 -5.14495991824597265E-01 -5.11235607651266522E-01
 -5.07466133217946758E-01 -5.03176582781001858E-01 -4.98356927664712290E-01
 -4.92998212980952699E-01 -4.87092679868932510E-01 -4.80633893088387165E-01
 -4.73616873738099076E-01 -4.66038236803529016E-01 -4.57896333162363389E-01
 -4.49191395594628617E-01 -4.39925688254456604E-01 -4.30103658963387814E-01
 -4.19732093580809318E-01 -4.08820271593989870E-01 -3.97380121944444387E-01
 -3.85426377988936308E-01 -3.72976730351728347E-01 -3.60051976282036279E-01
 -3.46676163981677832E-01 -3.32876730212552818E-01 -3.18684629333211678E-01
 -3.04134451749549228E-01 -2.89264529597959563E-01 -2.74117027311736983E-01
 -2.58738014555092044E-01 -2.43177518846153573E-01 -2.27489555033330765E-01
 -2.11732128641563294E-01 -1.95967209969552386E-01 -1.80260675700091605E-01
 -1.64682214687248224E-01 -1.49305194511271389E-01 -1.34206485349929405E-01
 -1.19466237709199147E-01 -1.05167610593106642E-01 -9.13964467786173712E-02
 -7.82408920038805550E-02 -6.57909550840411472E-02 -5.41380062392392628E-02
 -4.33742112949605865E-02 -3.35918998556247878E-02 -2.48828660694556426E-02
 -1.73376012506939112E-02 -1.10444581020057789E-02 -6.08874270285280836E-03
 -2.55166065061670361E-03 -5.07940383788581013E-04  9.53185244902117746E-06
  6.83543428643784625E-07  4.83059111149915955E-08  3.36478366413014941E-09
  2.30939838982566855E-10  1.56049845224411755E-11  1.03663581400452957E-12
  6.75496112504945138E-14  4.30334006061362040E-15  2.66674178529416287E-16
  1.59476386256154190E-17  9.08115260777810842E-19  4.80190491476372420E-20
  2.22826106787744944E-21  7.55132127921822721E-23 -2.63226964889183039E-25
 -3.90036809188732433E-25 -5.18722382383826289E-26 -5.23967577169010273E-27
 -4.70880468103275440E-28 -3.96047685060935298E-29 -3.18892266979031663E-30
 -2.48770732886125132E-31 -1.89342497256133621E-32 -1.41210029404652261E-33
 -1.03475435236360166E-34 -7.46276874420680040E-36  0.00000000000000000E+00
  0.00000000000000000E+00  0.00000000000000000E+00  0.00000000000000000E+00
  0.00000000000000000E+00  0.00000000000000000E+00  0.00000000000000000E+00
  0.00000000000000000E+00  0.00000000000000000E+00  0.00000000000000000E+00
  0.00000000000000000E+00  0.00000000000000000E+00  0.00000000000000000E+00
  0.00000000000000000E+00  0.00000000000000000E+00  0.00000000000000000E+00
  0.00000000000000000E+00  0.00000000000000000E+00  0.00000000000000000E+00
  0.00000000000000000E+00  0.00000000000000000E+00  0.00000000000000000E+00
  0.00000000000000000E+00  0.00000000000000000E+00  0.00000000000000000E+00
  0.00000000000000000E+00  0.00000000000000000E+00  0.00000000000000000E+00
  0.00000000000000000E+00  0.00000000000000000E+00  0.00000000000000000E+00
  0.00000000000000000E+00  0.00000000000000000E+00  0.00000000000000000E+00
  0.00000000000000000E+00  0.00000000000000000E+00  0.00000000000000000E+00
  0.00000000000000000E+00  0.00000000000000000E+00  0.00000000000000000E+00
  0.00000000000000000E+00  0.00000000000000000E+00  0.00000000000000000E+00
  0.00000000000000000E+00  0.00000000000000000E+00  0.00000000000000000E+00
  0.00000000000000000E+00  0.00000000000000000E+00  0.00000000000000000E+00
  0.00000000000000000E+00  0.00000000000000000E+00  0.00000000000000000E+00
  0.00000000000000000E+00  0.00000000000000000E+00  0.00000000000000000E+00
  0.00000000000000000E+00  0.00000000000000000E+00  0.00000000000000000E+00
  0.00000000000000000E+00  0.00000000000000000E+00  0.00000000000000000E+00
  0.00000000000000000E+00  0.00000000000000000E+00  0.00000000000000000E+00
  0.00000000000000000E+00  0.00000000000000000E+00  0.00000000000000000E+00
  0.00000000000000000E+00  0.00000000000000000E+00  0.00000000000000000E+00
  0.00000000000000000E+00  0.00000000000000000E+00  0.00000000000000000E+00
  0.00000000000000000E+00  0.00000000000000000E+00  0.00000000000000000E+00
  0.00000000000000000E+00  0.00000000000000000E+00  0.00000000000000000E+00
  0.00000000000000000E+00  0.00000000000000000E+00  0.00000000000000000E+00
  0.00000000000000000E+00  0.00000000000000000E+00  0.00000000000000000E+00
  0.00000000000000000E+00  0.00000000000000000E+00  0.00000000000000000E+00
  0.00000000000000000E+00  0.00000000000000000E+00  0.00000000000000000E+00
  0.00000000000000000E+00  0.00000000000000000E+00  0.00000000000000000E+00
  0.00000000000000000E+00  0.00000000000000000E+00  0.00000000000000000E+00
  0.00000000000000000E+00  0.00000000000000000E+00  0.00000000000000000E+00
  0.00000000000000000E+00  0.00000000000000000E+00  0.00000000000000000E+00
  0.00000000000000000E+00  0.00000000000000000E+00  0.00000000000000000E+00
  0.00000000000000000E+00  0.00000000000000000E+00  0.00000000000000000E+00
  0.00000000000000000E+00  0.00000000000000000E+00  0.00000000000000000E+00
  0.00000000000000000E+00  0.00000000000000000E+00  0.00000000000000000E+00
  0.00000000000000000E+00  0.00000000000000000E+00  0.00000000000000000E+00
  0.00000000000000000E+00  0.00000000000000000E+00  0.00000000000000000E+00
  0.00000000000000000E+00  0.00000000000000000E+00  0.00000000000000000E+00
  0.00000000000000000E+00  0.00000000000000000E+00  0.00000000000000000E+00
  0.00000000000000000E+00  0.00000000000000000E+00  0.00000000000000000E+00
  0.00000000000000000E+00  0.00000000000000000E+00  0.00000000000000000E+00
  0.00000000000000000E+00  0.00000000000000000E+00  0.00000000000000000E+00
  0.00000000000000000E+00  0.00000000000000000E+00  0.00000000000000000E+00
  0.00000000000000000E+00  0.00000000000000000E+00  0.00000000000000000E+00
  0.00000000000000000E+00  0.00000000000000000E+00  0.00000000000000000E+00
  0.00000000000000000E+00  0.00000000000000000E+00  0.00000000000000000E+00
  0.00000000000000000E+00  0.00000000000000000E+00  0.00000000000000000E+00
  0.00000000000000000E+00  0.00000000000000000E+00  0.00000000000000000E+00
  0.00000000000000000E+00  0.00000000000000000E+00  0.00000000000000000E+00
  0.00000000000000000E+00  0.00000000000000000E+00  0.00000000000000000E+00
  0.00000000000000000E+00  0.00000000000000000E+00  0.00000000000000000E+00
                       </PP_QIJL.4.4.0>
 <PP_QIJL.4.4.2 type="real" size="   999" columns="3" first_index=" 4" second_index=" 4" composite_index="10" angular_momentum="2">
 -1.61102232922271018E-16 -1.69362160060674803E-16 -1.78045532931312456E-16
 -1.87174090157858951E-16 -1.96770730194333771E-16 -2.06859416530849007E-16
 -2.17465291669742604E-16 -2.28614959974919869E-16 -2.40336339349510075E-16
 -2.52658649612541543E-16 -2.65612696328210972E-16 -2.79230970766428241E-16
 -2.93547484190937419E-16 -3.08597943152407247E-16 -3.24420095211915932E-16
 -3.41053516828485160E-16 -3.58539674735795607E-16 -3.76922376414113622E-16
 -3.96247648301847586E-16 -4.16563683428872707E-16 -4.37921329370422715E-16
 -4.60374083766192039E-16 -4.83977957258505617E-16 -5.08792003540010911E-16
 -5.34878377607382727E-16 -5.62302162876868329E-16 -5.91131981119936106E-16
 -6.21440021799289166E-16 -6.53301901325444230E-16 -6.86797390681685586E-16
 -7.22010303601819102E-16 -7.59028510417380095E-16 -7.97944747731715110E-16
 -8.38856286660881127E-16 -8.81865310221937562E-16 -9.27079562131820224E-16
 -9.74611931916879661E-16 -1.02458132960063456E-15 -1.07711280030520156E-15
 -1.13233748988297094E-15 -1.19039371477321011E-15 -1.25142650217921893E-15
 -1.31558848023813189E-15 -1.38304020865898443E-15 -1.45395012619796641E-15
 -1.52849580176661303E-15 -1.60686342210058889E-15 -1.68924907575496114E-15
 -1.77585875737800548E-15 -1.86690893230367105E-15 -1.96262747278135056E-15
 -2.06325345774488128E-15 -2.16903879987270710E-15 -2.28024773033430302E-15
 -2.39715858279588905E-15 -2.52006349483984618E-15 -2.64926993363910900E-15
 -2.78510090208456777E-15 -2.92789607208311070E-15 -3.07801253186632976E-15
 -3.23582558293701037E-15 -3.40172994059811017E-15 -3.57614032779015103E-15
 -3.75949300028459196E-15 -3.95224629069779338E-15 -4.15488232330640296E-15
 -4.36790766700633443E-15 -4.59185509817867136E-15 -4.82728453658232145E-15
 -5.07478469526875617E-15 -5.33497449813286482E-15 -5.60850443870556476E-15
 -5.89605868031345629E-15 -6.19835598172900713E-15 -6.51615258826819267E-15
 -6.85024276788421367E-15 -7.20146230478722336E-15 -7.57068911016466537E-15
 -7.95884664674619425E-15 -8.36690547490018793E-15 -8.79588580462554291E-15
 -9.24686061735308494E-15 -9.72095718743095910E-15 -1.02193613616146100E-14
 -1.07433192306788059E-14 -1.12941408971516954E-14 -1.18732039882851913E-14
 -1.24819560694646542E-14 -1.31219196354534713E-14 -1.37946949132484701E-14
 -1.45019639096969161E-14 -1.52454955478047671E-14 -1.60271488356290680E-14
 -1.68488781978105786E-14 -1.77127387238798516E-14 -1.86208902477288816E-14
 -1.95756035720960332E-14 -2.05792662892215618E-14 -2.16343878383244189E-14
 -2.27436064673062690E-14 -2.39096961260253420E-14 -2.51355725145536028E-14
 -2.64243007088280459E-14 -2.77791035129011416E-14 -2.92033686846040294E-14
 -3.07006573248206464E-14 -3.22747135156933823E-14 -3.39294734546184261E-14
 -3.56690748085091179E-14 -3.74978672193532541E-14 -3.94204238089425369E-14
 -4.14415521336331725E-14 -4.35663059763086832E-14 -4.57999980873951717E-14
 -4.81482139776488773E-14 -5.06168255873255487E-14 -5.32120057237964276E-14
 -5.59402435245452459E-14 -5.88083608851170528E-14 -6.18235297664955223E-14
 -6.49932897624540740E-14 -6.83255669102617147E-14 -7.18286935323167853E-14
 -7.55114291324297655E-14 -7.93829825415610811E-14 -8.34530347701407027E-14
 -8.77317631083485309E-14 -9.22298665899640427E-14 -9.69585927600893167E-14
 -1.01929765813279645E-13 -1.07155816224180389E-13 -1.12649811906471667E-13
 -1.18425490762339324E-13 -1.24497295019527943E-13 -1.30880407352441270E-13
 -1.37590788853634698E-13 -1.44645218950654494E-13 -1.52061337368072795E-13
 -1.59857688239676844E-13 -1.68053766481129186E-13 -1.76670066542095464E-13
 -1.85728133666557358E-13 -1.95250617748431024E-13 -2.05261329959208446E-13
 -2.15785302290126640E-13 -2.26848850146590607E-13 -2.38479638151429776E-13
 -2.50706749321610763E-13 -2.63560757791434736E-13 -2.77073805264124581E-13
 -2.91279681383013575E-13 -3.06213908223314121E-13 -3.21913829115760756E-13
 -3.38418702024188146E-13 -3.55769797710476947E-13 -3.74010502932232209E-13
 -3.93186428931063800E-13 -4.13345525482552797E-13 -4.34538200792778507E-13
 -4.56817447540845766E-13 -4.80238975384951596E-13 -5.04861350298048365E-13
 -5.30746141022748292E-13 -5.57958073009013502E-13 -5.86565190258939201E-13
 -6.16639025466938638E-13 -6.48254778879262421E-13 -6.81491506318856645E-13
 -7.16432316844161059E-13 -7.53164580534335807E-13 -7.91780146922179657E-13
 -8.32375574864103074E-13 -8.75052374203265380E-13 -9.19917259301840676E-13
 -9.67082415799657324E-13 -1.01666578106271078E-12 -1.06879133899009044E-12
 -1.12358943000685935E-12 -1.18119707788884891E-12 -1.24175833219227787E-12
 -1.30542462777080257E-12 -1.37235516324535724E-12 -1.44271729887217820E-12
 -1.51668697614635757E-12 -1.59444915860243124E-12 -1.67619829253318389E-12
 -1.76213879269936724E-12 -1.85248555348766223E-12 -1.94746448933488696E-12
 -2.04731309809180768E-12 -2.15228105277460086E-12 -2.26263082566738783E-12
 -2.37863834908710916E-12 -2.50059370374770581E-12 -2.62880184042003048E-12
 -2.76358334332340092E-12 -2.90527523832165045E-12 -3.05423182978411362E-12
 -3.21082558332777030E-12 -3.37544806436778212E-12 -3.54851091756080399E-12
 -3.73044688726179980E-12 -3.92171090532196694E-12 -4.12278123524740729E-12
 -4.33416065482289085E-12 -4.55637771866361588E-12 -4.78998808982190040E-12
 -5.03557591198773882E-12 -5.29375527901263695E-12 -5.56517177889353795E-12
 -5.85050408735477820E-12 -6.15046568349121101E-12 -6.46580663079309718E-12
 -6.79731543584988792E-12 -7.14582104917968779E-12 -7.51219491201504773E-12
 -7.89735314407101844E-12 -8.30225884808104433E-12 -8.72792448595445947E-12
 -9.17541445059023226E-12 -9.64584769220915015E-12 -1.01404005354626822E-11
 -1.06603096232124437E-11 -1.12068749844727826E-11 -1.17814633278116896E-11
 -1.23855114042919839E-11 -1.30205296589561796E-11 -1.36881059514152903E-11
 -1.43899095745842692E-11 -1.51276953916291273E-11 -1.59033082486557021E-11
 -1.67186875756227773E-11 -1.75758722364075670E-11 -1.84770056366171892E-11
 -1.94243410652658373E-11 -2.04202473532276923E-11 -2.14672147685158638E-11
 -2.25678612725520461E-11 -2.37249390384540057E-11 -2.49413413562052218E-11
 -2.62201098520587473E-11 -2.75644420973826019E-11 -2.89776996170577597E-11
 -3.04634162618662324E-11 -3.20253071015780087E-11 -3.36672776322517242E-11
 -3.53934336485232854E-11 -3.72080913848099428E-11 -3.91157884409570741E-11
 -4.11212950048149283E-11 -4.32296258746017839E-11 -4.54460529516174805E-11
 -4.77761184074073867E-11 -5.02256486223168541E-11 -5.28007686213054509E-11
 -5.55079175450213992E-11 -5.83538646185300854E-11 -6.13457261400152223E-11
 -6.44909833085612909E-11 -6.77975008072747363E-11 -7.12735466389865363E-11
 -7.49278126592946237E-11 -7.87694363483788770E-11 -8.28080237477289443E-11
 -8.70536733107055234E-11 -9.15170013084559655E-11 -9.62091683310196586E-11
 -1.01141907090437409E-10 -1.06327551948084831E-10 -1.11779069619532739E-10
 -1.17510091566382505E-10 -1.23534948263314568E-10 -1.29868704853221229E-10
 -1.36527198826259822E-10 -1.43527079795173267E-10 -1.50885850937424974E-10
 -1.58621912770515415E-10 -1.66754609350088385E-10 -1.75304276453106965E-10
 -1.84292292401170857E-10 -1.93741131726647415E-10 -2.03674421221419647E-10
 -2.14116998927936011E-10 -2.25094976438405128E-10 -2.36635804154116936E-10
 -2.48768339760036929E-10 -2.61522920476867734E-10 -2.74931439074429877E-10
 -2.89027423405032711E-10 -3.03846120207889900E-10 -3.19424583450081828E-10
 -3.35801766928257862E-10 -3.53018621507906459E-10 -3.71118197557538312E-10
 -3.90145752822202144E-10 -4.10148865413602027E-10 -4.31177552679037463E-10
 -4.53284396332643952E-10 -4.76524674150472964E-10 -5.00956497981693280E-10
 -5.26640958977689848E-10 -5.53642280394898285E-10 -5.82027978418331306E-10
 -6.11869030793164980E-10 -6.43240054202873838E-10 -6.76219490848916407E-10
 -7.10889804817139910E-10 -7.47337688223352812E-10 -7.85654277801775288E-10
 -8.25935382769186285E-10 -8.68281724467756173E-10 -9.12799188434251741E-10
 -9.59599088928640380E-10 -1.00879844719161469E-09 -1.06052028403346872E-09
 -1.11489392755986578E-09 -1.17205533671805722E-09 -1.23214744099998454E-09
 -1.29532049777186968E-09 -1.36173246796322724E-09 -1.43154941110330254E-09
 -1.50494590077649801E-09 -1.58210546088999885E-09 -1.66322102446681022E-09
 -1.74849541603615917E-09 -1.83814185876204071E-09 -1.93238450778113798E-09
 -2.03145901072043613E-09 -2.13561309666185389E-09 -2.24510719552301589E-09
 -2.36021508920612973E-09 -2.48122459613490269E-09 -2.60843829108934824E-09
 -2.74217426181477161E-09 -2.88276690409245603E-09 -3.03056775780116591E-09
 -3.18594638585866401E-09 -3.34929129822342503E-09 -3.52101092331031311E-09
 -3.70153462945394942E-09 -3.89131379828611884E-09 -4.09082295315961141E-09
 -4.30056094556484758E-09 -4.52105220236961819E-09 -4.75284803699943556E-09
 -4.99652802784636209E-09 -5.25270146757323282E-09 -5.52200888649861670E-09
 -5.80512365381980781E-09 -6.10275366114710844E-09 -6.41564309235525607E-09
 -6.74457428416556126E-09 -7.09036968210976552E-09 -7.45389389676669760E-09
 -7.83605586558477121E-09 -8.23781112550169379E-09 -8.66016420164507747E-09
 -9.10417111872672216E-09 -9.57094204121089236E-09 -1.00616440488260629E-08
 -1.05775040543572669E-08 -1.11198118710126773E-08 -1.16899234370310309E-08
 -1.22892642056462984E-08 -1.29193327090598130E-08 -1.35817043046218722E-08
 -1.42780351131263407E-08 -1.50100661591091582E-08 -1.57796277233831040E-08
 -1.65886439186877615E-08 -1.74391374998896085E-08 -1.83332349207548680E-08
 -1.92731716499331167E-08 -2.02612977594365029E-08 -2.13000837996138678E-08
 -2.23921269755096011E-08 -2.35401576394242998E-08 -2.47470461162373698E-08
 -2.60158098787413227E-08 -2.73496210907714239E-08 -2.87518145369777134E-08
 -3.02258959590559117E-08 -3.17755508192680823E-08 -3.34046535131509416E-08
 -3.51172770544333035E-08 -3.69177032563613984E-08 -3.88104334348729790E-08
 -4.08001996603632724E-08 -4.28919765862000469E-08 -4.50909938837006571E-08
 -4.74027493140381274E-08 -4.98330224701815443E-08 -5.23878892232613281E-08
 -5.50737369093456962E-08 -5.78972802945706782E-08 -6.08655783585054128E-08
 -6.39860519376826790E-08 -6.72665022733691861E-08 -7.07151305099064525E-08
 -7.43405581923333512E-08 -7.81518488144863963E-08 -8.21585304714051262E-08
 -8.63706196726220282E-08 -9.07986463758151557E-08 -9.54536803033490670E-08
 -1.00347358607431368E-07 -1.05491914952977507E-07 -1.10900210090834226E-07
 -1.16585763997850151E-07 -1.22562789663663879E-07 -1.28846228608770594E-07
 -1.35451788222713403E-07 -1.42395981015526521E-07 -1.49696165880434271E-07
 -1.57370591470834234E-07 -1.65438441799862596E-07 -1.73919884176386579E-07
 -1.82836119597099933E-07 -1.92209435720517367E-07 -2.02063262555113867E-07
 -2.12422231000611887E-07 -2.23312234388547522E-07 -2.34760493175715801E-07
 -2.46795622951967214E-07 -2.59447705932081140E-07 -2.72748366110139382E-07
 -2.86730848263945134E-07 -3.01430101006635460E-07 -3.16882864092726578E-07
 -3.33127760196423598E-07 -3.50205391391188370E-07 -3.68158440571264789E-07
 -3.87031778068176606E-07 -4.06872573728164161E-07 -4.27730414730120906E-07
 -4.49657429437903125E-07 -4.72708417595909149E-07 -4.96940987192624803E-07
 -5.22415698333451937E-07 -5.49196214481563534E-07 -5.77349461443906802E-07
 -6.06945794498739095E-07 -6.38059174081347461E-07 -6.70767350465933170E-07
 -7.05152057903985836E-07 -7.41299218703054310E-07 -7.79299157754518218E-07
 -8.19246828044994458E-07 -8.61242047713310865E-07 -9.05389749243661758E-07
 -9.51800241415837128E-07 -1.00058948466509130E-06 -1.05187938053751482E-06
 -1.10579807596189079E-06 -1.16248028309578443E-06 -1.22206761554233832E-06
 -1.28470894177494376E-06 -1.35056075664967171E-06 -1.41978757193032346E-06
 -1.49256232679813250E-06 -1.56906681936779500E-06 -1.64949216028369313E-06
 -1.73403924952488918E-06 -1.82291927760521001E-06 -1.91635425241511014E-06
 -2.01457755301575476E-06 -2.11783451176253274E-06 -2.22638302620547031E-06
 -2.34049420228789910E-06 -2.46045303044222115E-06 -2.58655909626321273E-06
 -2.71912732752493900E-06 -2.85848877939740445E-06 -3.00499145981363578E-06
 -3.15900119703732128E-06 -3.32090255158555333E-06 -3.49109977477104705E-06
 -3.67001781624343584E-06 -3.85810338303055973E-06 -4.05582605270786993E-06
 -4.26367944345793440E-06 -4.48218244392264164E-06 -4.71188050589832212E-06
 -4.95334700307923994E-06 -5.20718465921805109E-06 -5.47402704924293391E-06
 -5.75454017705135230E-06 -6.04942413388929421E-06 -6.35941484142369392E-06
 -6.68528588382440013E-06 -7.02785043339108714E-06 -7.38796327449131024E-06
 -7.76652293081768839E-06 -8.16447390122641065E-06 -8.58280900968649244E-06
 -9.02257187514956184E-06 -9.48485950744485259E-06 -9.97082503561351165E-06
 -1.04816805754217075E-05 -1.10187002431333757E-05 -1.15832233229823405E-05
 -1.21766575961605065E-05 -1.28004828395343116E-05 -1.34562545027177026E-05
 -1.41456075725662844E-05 -1.48702606346158691E-05 -1.56320201414704028E-05
 -1.64327848986497044E-05 -1.72745507789390153E-05 -1.81594156768395984E-05
 -1.90895847153057279E-05 -2.00673757175683746E-05 -2.10952249574914475E-05
 -2.21756932025851234E-05 -2.33114720645119931E-05 -2.45053906726700734E-05
 -2.57604226872214776E-05 -2.70796936687590326E-05 -2.84664888226687558E-05
 -2.99242611371545741E-05 -3.14566399348437345E-05 -3.30674398588942355E-05
 -3.47606703155736970E-05 -3.65405453963838975E-05 -3.84114943039612697E-05
 -4.03781723071984898E-05 -4.24454722523079356E-05 -4.46185366578843965E-05
 -4.69027704234298515E-05 -4.93038541822749798E-05 -5.18277583313794183E-05
 -5.44807577721137615E-05 -5.72694473978292232E-05 -6.02007583658054353E-05
 -6.32819751930411531E-05 -6.65207537173173391E-05 -6.99251399670226240E-05
 -7.35035899853955305E-05 -7.72649906571031957E-05 -8.12186815874560924E-05
 -8.53744780870532762E-05 -8.97426953172664329E-05 -9.43341736547162934E-05
 -9.91603053357674588E-05 -1.04233062445090768E-04 -1.09565026315518123E-04
 -1.15169418409648476E-04 -1.21060132757219981E-04 -1.27251770025904549E-04
 -1.33759673306954602E-04 -1.40599965701148564E-04 -1.47789589794666371E-04
 -1.55346349118918995E-04 -1.63288951692952783E-04 -1.71637055751866377E-04
 -1.80411317769725143E-04 -1.89633442890740065E-04 -1.99326237888014079E-04
 -2.09513666774952293E-04 -2.20220909200500344E-04 -2.31474421765725765E-04
 -2.43302002405905318E-04 -2.55732857989242530E-04 -2.68797675290615454E-04
 -2.82528695506380017E-04 -2.96959792484221977E-04 -3.12126554850390703E-04
 -3.28066372225366265E-04 -3.44818525728138260E-04 -3.62424282978802525E-04
 -3.80926997819158969E-04 -4.00372214981406884E-04 -4.20807779945933018E-04
 -4.42283954240561643E-04 -4.64853536445518801E-04 -4.88571989180795578E-04
 -5.13497572365545388E-04 -5.39691483052699207E-04 -5.67218002156112504E-04
 -5.96144648402311284E-04 -6.26542339854294019E-04 -6.58485563371110391E-04
 -6.92052552383147328E-04 -7.27325473380612615E-04 -7.64390621531668571E-04
 -8.03338625864887163E-04 -8.44264664470643499E-04 -8.87268690196664988E-04
 -9.32455667334353795E-04 -9.79935819814837248E-04 -1.02982489145686052E-03
 -1.08224441883281782E-03 -1.13732201734427496E-03 -1.19519168112444825E-03
 -1.25599409741220316E-03 -1.31987697607025998E-03 -1.38699539494956006E-03
 -1.45751216183203345E-03 -1.53159819371545764E-03 -1.60943291423674365E-03
 -1.69120467006371802E-03 -1.77711116712049111E-03 -1.86735992754769303E-03
 -1.96216876833634228E-03 -2.06176630261281288E-03 -2.16639246459238198E-03
 -2.27629905926012965E-03 -2.39175033788061866E-03 -2.51302360048160809E-03
 -2.64040982650241059E-03 -2.77421433484396690E-03 -2.91475747460561829E-03
 -3.06237534784316616E-03 -3.21742056573338583E-03 -3.38026303957780902E-03
 -3.55129080813814833E-03 -3.73091090284643611E-03 -3.91955025248817094E-03
 -4.11765662901333093E-03 -4.32569963618765086E-03 -4.54417174285464548E-03
 -4.77358936263811567E-03 -5.01449398197457465E-03 -5.26745333842547608E-03
 -5.53306265128001087E-03 -5.81194590652021979E-03 -6.10475719828160786E-03
 -6.41218212900328266E-03 -6.73493927052259880E-03 -7.07378168842930609E-03
 -7.42949853205349207E-03 -7.80291669251949316E-03 -8.19490253135459965E-03
 -8.60636368219557663E-03 -9.03825092818824442E-03 -9.49156015772434185E-03
 -9.96733440120589967E-03 -1.04666659515686919E-02 -1.09906985713338259E-02
 -1.15406297889881597E-02 -1.21177132875199267E-02 -1.27232613879556672E-02
 -1.33586476307568959E-02 -1.40253094579261568E-02 -1.47247509986807804E-02
 -1.54585459615278874E-02 -1.62283406355410269E-02 -1.70358570035963608E-02
 -1.78828959702674734E-02 -1.87713407070016734E-02 -1.97031601171071234E-02
 -2.06804124229657479E-02 -2.17052488777510454E-02 -2.27799176037697566E-02
 -2.39067675593594466E-02 -2.50882526360589678E-02 -2.63269358875214028E-02
 -2.76254938913583110E-02 -2.89867212447854038E-02 -3.04135351945807805E-02
 -3.19089804014644901E-02 -3.34762338385574398E-02 -3.51186098230760191E-02
 -3.68395651798618454E-02 -3.86427045347285184E-02 -4.05317857349255725E-02
 -4.25107253932686252E-02 -4.45836045516576629E-02 -4.67546744588004451E-02
 -4.90283624559582701E-02 -5.14092779634483660E-02 -5.39022185594819625E-02
 -5.65121761415821947E-02 -5.92443431594436437E-02 -6.21041189065731497E-02
 -6.50971158563972141E-02 -6.82291660267330957E-02 -7.15063273545867989E-02
 -7.49348900611529339E-02 -7.85213829846418548E-02 -8.22725798561325244E-02
 -8.61955054910446827E-02 -9.02974418660244249E-02 -9.45859340480319083E-02
 -9.90687959392052980E-02 -1.03754115797633675E-01 -1.08650261490492464E-01
 -1.13765885432076427E-01 -1.19109929155081090E-01 -1.24691627459040416E-01
 -1.30520512075099571E-01 -1.36606414781290569E-01 -1.42959469897166291E-01
 -1.49590116081029706E-01 -1.56509097347063114E-01 -1.63727463213405533E-01
 -1.71256567885544914E-01 -1.79108068372575091E-01 -1.87293921427028026E-01
 -1.95826379190549543E-01 -2.04717983420281247E-01 -2.13981558162506358E-01
 -2.23630200731504636E-01 -2.33677270842667845E-01 -2.44136377739742699E-01
 -2.55021365146591794E-01 -2.66346293864150652E-01 -2.78125421823313346E-01
 -2.90373181394345370E-01 -3.03104153743167126E-01 -3.16333040014486255E-01
 -3.30074629111384521E-01 -3.44343761830634143E-01 -3.59155291102821572E-01
 -3.74524038076387344E-01 -3.90464743775059742E-01 -4.06992016048992766E-01
 -4.24120271531357451E-01 -4.41863672304331823E-01 -4.60236056971584262E-01
 -4.79250865828615535E-01 -4.98921059817987178E-01 -5.19259032953519606E-01
 -5.40276517895918906E-01 -5.61984484367443859E-01 -5.84393030092576482E-01
 -6.07511263959272907E-01 -6.31347181106634459E-01 -6.55907529658001365E-01
 -6.81197668836295955E-01 -7.07221418221066878E-01 -7.33980897934450094E-01
 -7.61476359576939932E-01 -7.89706007773997798E-01 -8.18665812241776036E-01
 -8.48349310335446360E-01 -8.78747400107450560E-01 -9.09848123976271794E-01
 -9.41636443190064676E-01 -9.74094003364298633E-01 -1.00719889147976471E+00
 -1.04092538484751485E+00 -1.07524369268176678E+00 -1.11011969107153496E+00
 -1.14551465230758498E+00 -1.18138496970465212E+00 -1.21768187926041493E+00
 -1.25435117971368459E+00 -1.29133295280539162E+00 -1.32856128580763477E+00
 -1.36596399867736573E+00 -1.40346237848949951E+00 -1.44097092413847583E+00
 -1.47839710465442287E+00 -1.51564113485772478E+00 -1.55259577247889813E+00
 -1.58914614129717258E+00 -1.62516958530063005E+00 -1.66053555934189623E+00
 -1.69510556225437359E+00 -1.72873311890290138E+00 -1.76126381816616417E+00
 -1.79253541438291220E+00 -1.82237800033520747E+00 -1.85061426038414845E+00
 -1.87705981291027979E+00 -1.90152365173437921E+00 -1.92380869669541532E+00
 -1.94371246403090958E+00 -1.96102786762831505E+00 -1.97554416258094734E+00
 -1.98704804277259495E+00 -1.99532490441380150E+00 -2.00016028754033881E+00
 -2.00134150744772699E+00 -1.99865948783639014E+00 -1.99191080697684675E+00
 -1.98089996772412058E+00 -1.96544190131108221E+00 -1.94536471372739439E+00
 -1.92051268206357761E+00 -1.89074950641537809E+00 -1.85596182076840432E+00
 -1.81606296367570086E+00 -1.77099700645891667E+00 -1.72074303306427256E+00
 -1.66531966154457844E+00 -1.60478979237670494E+00 -1.53926556341991505E+00
 -1.46891348523875376E+00 -1.39395972372220078E+00 -1.31469548940451242E+00
 -1.23148248461497145E+00 -1.14475835054850195E+00 -1.05504204656371181E+00
 -9.62939083502812765E-01 -8.69146521632066626E-01 -7.74457631986852135E-01
 -6.79766107564195754E-01 -5.86069698061928657E-01 -4.94473128898305192E-01
 -4.06190152061922327E-01 -3.22544563630695502E-01 -2.44970010475916655E-01
 -1.75008396775856612E-01 -1.14306687561174847E-01 -6.46118472143632633E-02
 -2.77628389336338835E-02 -5.66603822642215271E-03  1.08474248977803969E-04
  7.77885101163749270E-06  5.49730228978246364E-07  3.82918622472783107E-08
  2.62813820573370316E-09  1.77587618507028847E-10  1.17971078538026801E-11
  7.68727106124314230E-13  4.89728081364808799E-14  3.03480161830681147E-15
  1.81487085761665886E-16  1.03345201182034444E-17  5.46465686578388726E-19
  2.53580242830244575E-20  8.59354368874474477E-22 -2.99557168764116346E-24
 -4.43869123832183244E-24 -5.90315693177153327E-25 -5.96284822138266917E-26
 -5.35870707283817189E-27 -4.50709612073301312E-28 -3.62905315104117616E-29
 -2.83105708589220005E-30 -2.15475274080120155E-31 -1.60699632833450424E-32
 -1.17756964713277808E-33 -8.49276926129916904E-35  0.00000000000000000E+00
  0.00000000000000000E+00  0.00000000000000000E+00  0.00000000000000000E+00
  0.00000000000000000E+00  0.00000000000000000E+00  0.00000000000000000E+00
  0.00000000000000000E+00  0.00000000000000000E+00  0.00000000000000000E+00
  0.00000000000000000E+00  0.00000000000000000E+00  0.00000000000000000E+00
  0.00000000000000000E+00  0.00000000000000000E+00  0.00000000000000000E+00
  0.00000000000000000E+00  0.00000000000000000E+00  0.00000000000000000E+00
  0.00000000000000000E+00  0.00000000000000000E+00  0.00000000000000000E+00
  0.00000000000000000E+00  0.00000000000000000E+00  0.00000000000000000E+00
  0.00000000000000000E+00  0.00000000000000000E+00  0.00000000000000000E+00
  0.00000000000000000E+00  0.00000000000000000E+00  0.00000000000000000E+00
  0.00000000000000000E+00  0.00000000000000000E+00  0.00000000000000000E+00
  0.00000000000000000E+00  0.00000000000000000E+00  0.00000000000000000E+00
  0.00000000000000000E+00  0.00000000000000000E+00  0.00000000000000000E+00
  0.00000000000000000E+00  0.00000000000000000E+00  0.00000000000000000E+00
  0.00000000000000000E+00  0.00000000000000000E+00  0.00000000000000000E+00
  0.00000000000000000E+00  0.00000000000000000E+00  0.00000000000000000E+00
  0.00000000000000000E+00  0.00000000000000000E+00  0.00000000000000000E+00
  0.00000000000000000E+00  0.00000000000000000E+00  0.00000000000000000E+00
  0.00000000000000000E+00  0.00000000000000000E+00  0.00000000000000000E+00
  0.00000000000000000E+00  0.00000000000000000E+00  0.00000000000000000E+00
  0.00000000000000000E+00  0.00000000000000000E+00  0.00000000000000000E+00
  0.00000000000000000E+00  0.00000000000000000E+00  0.00000000000000000E+00
  0.00000000000000000E+00  0.00000000000000000E+00  0.00000000000000000E+00
  0.00000000000000000E+00  0.00000000000000000E+00  0.00000000000000000E+00
  0.00000000000000000E+00  0.00000000000000000E+00  0.00000000000000000E+00
  0.00000000000000000E+00  0.00000000000000000E+00  0.00000000000000000E+00
  0.00000000000000000E+00  0.00000000000000000E+00  0.00000000000000000E+00
  0.00000000000000000E+00  0.00000000000000000E+00  0.00000000000000000E+00
  0.00000000000000000E+00  0.00000000000000000E+00  0.00000000000000000E+00
  0.00000000000000000E+00  0.00000000000000000E+00  0.00000000000000000E+00
  0.00000000000000000E+00  0.00000000000000000E+00  0.00000000000000000E+00
  0.00000000000000000E+00  0.00000000000000000E+00  0.00000000000000000E+00
  0.00000000000000000E+00  0.00000000000000000E+00  0.00000000000000000E+00
  0.00000000000000000E+00  0.00000000000000000E+00  0.00000000000000000E+00
  0.00000000000000000E+00  0.00000000000000000E+00  0.00000000000000000E+00
  0.00000000000000000E+00  0.00000000000000000E+00  0.00000000000000000E+00
  0.00000000000000000E+00  0.00000000000000000E+00  0.00000000000000000E+00
  0.00000000000000000E+00  0.00000000000000000E+00  0.00000000000000000E+00
  0.00000000000000000E+00  0.00000000000000000E+00  0.00000000000000000E+00
  0.00000000000000000E+00  0.00000000000000000E+00  0.00000000000000000E+00
  0.00000000000000000E+00  0.00000000000000000E+00  0.00000000000000000E+00
  0.00000000000000000E+00  0.00000000000000000E+00  0.00000000000000000E+00
  0.00000000000000000E+00  0.00000000000000000E+00  0.00000000000000000E+00
  0.00000000000000000E+00  0.00000000000000000E+00  0.00000000000000000E+00
  0.00000000000000000E+00  0.00000000000000000E+00  0.00000000000000000E+00
  0.00000000000000000E+00  0.00000000000000000E+00  0.00000000000000000E+00
  0.00000000000000000E+00  0.00000000000000000E+00  0.00000000000000000E+00
  0.00000000000000000E+00  0.00000000000000000E+00  0.00000000000000000E+00
  0.00000000000000000E+00  0.00000000000000000E+00  0.00000000000000000E+00
  0.00000000000000000E+00  0.00000000000000000E+00  0.00000000000000000E+00
  0.00000000000000000E+00  0.00000000000000000E+00  0.00000000000000000E+00
  0.00000000000000000E+00  0.00000000000000000E+00  0.00000000000000000E+00
  0.00000000000000000E+00  0.00000000000000000E+00  0.00000000000000000E+00
  0.00000000000000000E+00  0.00000000000000000E+00  0.00000000000000000E+00
                       </PP_QIJL.4.4.2>
                                   </PP_AUGMENTATION> 
                                   </PP_NONLOCAL> 
<PP_PSWFC> 
 <PP_CHI.1 type="real" size="   999" l="0" occupation=" 2.0000" columns="3" label= "3S">
  7.29342161778644718E-05  7.38516156793143425E-05  7.47805546458449848E-05
  7.57211782260551458E-05  7.66736333942882745E-05  7.76380689735971425E-05
  7.86146356589979622E-05  7.96034860410167907E-05  8.06047746295319762E-05
  8.16186578779169280E-05  8.26452942074858940E-05  8.36848440322478140E-05
  8.47374697839712579E-05  8.58033359375647177E-05  8.68826090367763463E-05
  8.79754577202163541E-05  8.90820527477073778E-05  9.02025670269660315E-05
  9.13371756406198968E-05  9.24860558735649522E-05  9.36493872406661662E-05
  9.48273515148073659E-05  9.60201327552934718E-05  9.72279173366101930E-05
  9.84508939775455630E-05  9.96892537706771885E-05  1.00943190212231286E-04
  1.02212899232316556E-04  1.03498579225538685E-04  1.04800431082000255E-04
  1.06118658218689585E-04  1.07453466611265511E-04  1.08805064826241271E-04
  1.10173664053573458E-04  1.11559478139661091E-04  1.12962723620759145E-04
  1.14383619756812919E-04  1.15822388565717935E-04  1.17279254858010428E-04
  1.18754446271994899E-04  1.20248193309312396E-04  1.21760729370957307E-04
  1.23292290793746475E-04  1.24843116887247328E-04  1.26413449971170727E-04
  1.28003535413233457E-04  1.29613621667497585E-04  1.31243960313191940E-04
  1.32894806094021711E-04  1.34566416957972976E-04  1.36259054097616995E-04
  1.37972981990922483E-04  1.39708468442580649E-04  1.41465784625850039E-04
  1.43245205124928451E-04  1.45047007977856422E-04  1.46871474719961607E-04
  1.48718890427849233E-04  1.50589543763945645E-04  1.52483727021602883E-04
  1.54401736170769229E-04  1.56343870904235641E-04  1.58310434684463087E-04
  1.60301734790999106E-04  1.62318082368491287E-04  1.64359792475303278E-04
  1.66427184132743935E-04  1.68520580374914732E-04  1.70640308299184338E-04
  1.72786699117298689E-04  1.74960088207132643E-04  1.77160815165093810E-04
  1.79389223859185217E-04  1.81645662482734713E-04  1.83930483608801885E-04
  1.86244044245267024E-04  1.88586705890614868E-04  1.90958834590419259E-04
  1.93360800994538308E-04  1.95792980415029623E-04  1.98255752884792533E-04
  2.00749503216949513E-04  2.03274621064973788E-04  2.05831500983573245E-04
  2.08420542490340695E-04  2.11042150128178460E-04  2.13696733528509399E-04
  2.16384707475282263E-04  2.19106491969782484E-04  2.21862512296258472E-04
  2.24653199088372150E-04  2.27478988396486625E-04  2.30340321755799813E-04
  2.33237646255334853E-04  2.36171414607799101E-04  2.39142085220319999E-04
  2.42150122266072975E-04  2.45195995756808795E-04  2.48280181616293539E-04
  2.51403161754673327E-04  2.54565424143771970E-04  2.57767462893338406E-04
  2.61009778328251873E-04  2.64292877066698141E-04  2.67617272099330368E-04
  2.70983482869423026E-04  2.74392035354036740E-04  2.77843462146202874E-04
  2.81338302538141575E-04  2.84877102605527810E-04  2.88460415292815151E-04
  2.92088800499634975E-04  2.95762825168281501E-04  2.99483063372296796E-04
  3.03250096406171537E-04  3.07064512876171992E-04  3.10926908792310771E-04
  3.14837887661474430E-04  3.18798060581721788E-04  3.22808046337769833E-04
  3.26868471497677776E-04  3.30979970510750666E-04  3.35143185806671792E-04
  3.39358767895883544E-04  3.43627375471230979E-04  3.47949675510881944E-04
  3.52326343382544107E-04  3.56758062948991494E-04  3.61245526674919119E-04
  3.65789435735141427E-04  3.70390500124150436E-04  3.75049438767054285E-04
  3.79766979631909524E-04  3.84543859843466387E-04  3.89380825798345492E-04
  3.94278633281664056E-04  3.99238047585125674E-04  4.04259843626599480E-04
  4.09344806071200906E-04  4.14493729453896040E-04  4.19707418303649923E-04
  4.24986687269132094E-04  4.30332361246007513E-04  4.35745275505827214E-04
  4.41226275826538713E-04  4.46776218624641089E-04  4.52395971088998298E-04
  4.58086411316339459E-04  4.63848428448460949E-04  4.69682922811154985E-04
  4.75590806054887786E-04  4.81573001297241996E-04  4.87630443267156343E-04
  4.93764078450976127E-04  4.99974865240342191E-04  5.06263774081940868E-04
  5.12631787629133293E-04  5.19079900895497940E-04  5.25609121410300015E-04
  5.32220469375917497E-04  5.38914977827249222E-04  5.45693692793124282E-04
  5.52557673459745289E-04  5.59507992336184248E-04  5.66545735421962807E-04
  5.73672002376740412E-04  5.80887906692132490E-04  5.88194575865694756E-04
  5.95593151577093706E-04  6.03084789866492567E-04  6.10670661315183719E-04
  6.18351951228487962E-04  6.26129859820959123E-04  6.34005602403916340E-04
  6.41980409575333396E-04  6.50055527412122191E-04  6.58232217664825965E-04
  6.66511757954768450E-04  6.74895441973680536E-04  6.83384579685836213E-04
  6.91980497532734980E-04  7.00684538640352836E-04  7.09498063029005330E-04
  7.18422447825847505E-04  7.27459087480046823E-04  7.36609393980665415E-04
  7.45874797077275596E-04  7.55256744503359509E-04  7.64756702202510773E-04
  7.74376154557485639E-04  7.84116604622135628E-04  7.93979574356251682E-04
  8.03966604863369278E-04  8.14079256631558665E-04  8.24319109777247954E-04
  8.34687764292112210E-04  8.45186840293063045E-04  8.55817978275388684E-04
  8.66582839369074319E-04  8.77483105598347857E-04  8.88520480144491072E-04
  8.99696687611950194E-04  9.11013474297801785E-04  9.22472608464602081E-04
  9.34075880616670002E-04  9.45825103779847636E-04  9.57722113784771037E-04
  9.69768769553713697E-04  9.81966953391031402E-04  9.94318571277261936E-04
  1.00682555316692615E-03  1.01948985329006724E-03  1.03231345045759156E-03
  1.04529834837044215E-03  1.05844657593266527E-03  1.07176018756841604E-03
  1.08524126354294162E-03  1.09889191028761206E-03  1.11271426072903352E-03
  1.12671047462230083E-03  1.14088273888844562E-03  1.15523326795611875E-03
  1.16976430410758179E-03  1.18447811782904002E-03  1.19937700816538867E-03
  1.21446330307941751E-03  1.22973935981552838E-03  1.24520756526803758E-03
  1.26087033635409831E-03  1.27673012039132279E-03  1.29278939548014941E-03
  1.30905067089101502E-03  1.32551648745640217E-03  1.34218941796781480E-03
  1.35907206757774290E-03  1.37616707420669263E-03  1.39347710895531716E-03
  1.41100487652174754E-03  1.42875311562416438E-03  1.44672459942868218E-03
  1.46492213598262036E-03  1.48334856865321545E-03  1.50200677657185496E-03
  1.52089967508389637E-03  1.54003021620414591E-03  1.55940138907805642E-03
  1.57901622044873732E-03  1.59887777512982389E-03  1.61898915648430093E-03
  1.63935350690935008E-03  1.65997400832728248E-03  1.68085388268265890E-03
  1.70199639244564727E-03  1.72340484112172110E-03  1.74508257376776118E-03
  1.76703297751464364E-03  1.78925948209641018E-03  1.81176556038607729E-03
  1.83455472893819449E-03  1.85763054853822361E-03  1.88099662475881327E-03
  1.90465660852308827E-03  1.92861419667499849E-03  1.95287313255685779E-03
  1.97743720659413792E-03  2.00231025688760731E-03  2.02749616981292820E-03
  2.05299888062778152E-03  2.07882237408662986E-03  2.10497068506321000E-03
  2.13144789918084639E-03  2.15825815345069890E-03  2.18540563691802013E-03
  2.21289459131654995E-03  2.24072931173113386E-03  2.26891414726866549E-03
  2.29745350173747283E-03  2.32635183433523322E-03  2.35561366034554766E-03
  2.38524355184326813E-03  2.41524613840868319E-03  2.44562610785069691E-03
  2.47638820693907909E-03  2.50753724214593503E-03  2.53907808039648998E-03
  2.57101564982930436E-03  2.60335494056606167E-03  2.63610100549100659E-03
  2.66925896104019912E-03  2.70283398800068688E-03  2.73683133231970811E-03
  2.77125630592408223E-03  2.80611428754988079E-03  2.84141072358253888E-03
  2.87715112890752321E-03  2.91334108777167476E-03  2.94998625465539956E-03
  2.98709235515579822E-03  3.02466518688090501E-03  3.06271062035516281E-03
  3.10123459993626518E-03  3.14024314474353533E-03  3.17974234959795318E-03
  3.21973838597400209E-03  3.26023750296347906E-03  3.30124602825139545E-03
  3.34277036910416185E-03  3.38481701337016699E-03  3.42739253049293693E-03
  3.47050357253702408E-03  3.51415687522676698E-03  3.55835925899812035E-03
  3.60311763006367688E-03  3.64843898149107325E-03  3.69433039429495477E-03
  3.74079903854262043E-03  3.78785217447359353E-03  3.83549715363321444E-03
  3.88374142002049973E-03  3.93259251125039830E-03  3.98205805973064070E-03
  4.03214579385337713E-03  4.08286353920176304E-03  4.13421921977169971E-03
  4.18622085920892107E-03  4.23887658206159069E-03  4.29219461504864053E-03
  4.34618328834402833E-03  4.40085103687709936E-03  4.45620640164929704E-03
  4.51225803106736125E-03  4.56901468229329449E-03  4.62648522261125458E-03
  4.68467863081157860E-03  4.74360399859221835E-03  4.80327053197771286E-03
  4.86368755275598617E-03  4.92486449993318441E-03  4.98681093120671368E-03
  5.04953652445681682E-03  5.11305107925680985E-03  5.17736451840227537E-03
  5.24248688945944986E-03  5.30842836633298957E-03  5.37519925085343676E-03
  5.44280997438455205E-03  5.51127109945082072E-03  5.58059332138535844E-03
  5.65078746999845161E-03  5.72186451126704184E-03  5.79383554904536018E-03
  5.86671182679700167E-03  5.94050472934871347E-03  6.01522578466613580E-03
  6.09088666565181514E-03  6.16749919196570105E-03  6.24507533186849286E-03
  6.32362720408802780E-03  6.40316707970905400E-03  6.48370738408668781E-03
  6.56526069878378329E-03  6.64783976353258612E-03  6.73145747822092699E-03
  6.81612690490326738E-03  6.90186126983692496E-03  6.98867396554374385E-03
  7.07657855289759146E-03  7.16558876323794818E-03  7.25571850050990563E-03
  7.34698184343098200E-03  7.43939304768496089E-03  7.53296654814319174E-03
  7.62771696111366748E-03  7.72365908661814052E-03  7.82080791069777841E-03
  7.91917860774754567E-03  8.01878654287977582E-03  8.11964727431726922E-03
  8.22177655581622820E-03  8.32519033911949258E-03  8.42990477644033585E-03
  8.53593622297728512E-03  8.64330123946033257E-03  8.75201659472883697E-03
  8.86209926834167008E-03  8.97356645321979209E-03  9.08643555832186478E-03
  9.20072421135315587E-03  9.31645026150818185E-03  9.43363178224755801E-03
  9.55228707410937794E-03  9.67243466755561380E-03  9.79409332585397079E-03
  9.91728204799552197E-03  1.00420200716487308E-02  1.01683268761501317E-02
  1.02962221855322101E-02  1.04257259715889745E-02  1.05568584569794861E-02
  1.06896401183700883E-02  1.08240916896155184E-02  1.09602341649795865E-02
  1.10980888023957894E-02  1.12376771267683612E-02  1.13790209333142576E-02
  1.15221422909465732E-02  1.16670635456998777E-02  1.18138073241979454E-02
  1.19623965371644554E-02  1.21128543829771250E-02  1.22652043512657821E-02
  1.24194702265549555E-02  1.25756760919514838E-02  1.27338463328776491E-02
  1.28940056408504439E-02  1.30561790173074569E-02  1.32203917774799500E-02
  1.33866695543137272E-02  1.35550383024382638E-02  1.37255243021847592E-02
  1.38981541636536560E-02  1.40729548308321916E-02  1.42499535857625436E-02
  1.44291780527612719E-02  1.46106562026905324E-02  1.47944163572817054E-02
  1.49804871935120994E-02  1.51688977480352507E-02  1.53596774216655640E-02
  1.55528559839177866E-02  1.57484635776020294E-02  1.59465307234750026E-02
  1.61470883249479717E-02  1.63501676728522935E-02  1.65558004502629579E-02
  1.67640187373810055E-02  1.69748550164753251E-02  1.71883421768846030E-02
  1.74045135200800692E-02  1.76234027647897175E-02  1.78450440521847158E-02
  1.80694719511286551E-02  1.82967214634903730E-02  1.85268280295211030E-02
  1.87598275332964970E-02  1.89957563082244728E-02  1.92346511426193904E-02
  1.94765492853434113E-02  1.97214884515157507E-02  1.99695068282905105E-02
  2.02206430807039018E-02  2.04749363575915458E-02  2.07324262975766282E-02
  2.09931530351296670E-02  2.12571572067006727E-02  2.15244799569243722E-02
  2.17951629448993982E-02  2.20692483505420672E-02  2.23467788810156817E-02
  2.26277977772360271E-02  2.29123488204537734E-02  2.32004763389148626E-02
  2.34922252145991946E-02  2.37876408900389753E-02  2.40867693752169557E-02
  2.43896572545457962E-02  2.46963516939290618E-02  2.50069004479048194E-02
  2.53213518668725622E-02  2.56397549044042466E-02  2.59621591246403348E-02
  2.62886147097714656E-02  2.66191724676067658E-02  2.69538838392294616E-02
  2.72928009067406364E-02  2.76359764010919058E-02  2.79834637100078581E-02
  2.83353168859989436E-02  2.86915906544658109E-02  2.90523404218956081E-02
  2.94176222841512729E-02  2.97874930348544127E-02  3.01620101738626772E-02
  3.05412319158422825E-02  3.09252171989365839E-02  3.13140256935312972E-02
  3.17077178111172323E-02  3.21063547132511770E-02  3.25099983206158655E-02
  3.29187113221794045E-02  3.33325571844552138E-02  3.37516001608629754E-02
  3.41759053011913699E-02  3.46055384611631128E-02  3.50405663121032690E-02
  3.54810563507110474E-02  3.59270769089361092E-02  3.63786971639597639E-02
  3.68359871482815682E-02  3.72990177599122827E-02  3.77678607726731341E-02
  3.82425888466025252E-02  3.87232755384701588E-02  3.92099953123994649E-02
  3.97028235505983915E-02  4.02018365641993516E-02  4.07071116042084027E-02
  4.12187268725641084E-02  4.17367615333064934E-02  4.22612957238562501E-02
  4.27924105664043847E-02  4.33301881794127056E-02  4.38747116892250905E-02
  4.44260652417898111E-02  4.49843340144928799E-02  4.55496042281023361E-02
  4.61219631588237686E-02  4.67014991504665980E-02  4.72883016267211520E-02
  4.78824611035463671E-02  4.84840692016676109E-02  4.90932186591847078E-02
  4.97100033442891831E-02  5.03345182680907249E-02  5.09668595975520874E-02
  5.16071246685318175E-02  5.22554119989340274E-02  5.29118213019645553E-02
  5.35764534994923394E-02  5.42494107355154173E-02  5.49307963897299120E-02
  5.56207150912012560E-02  5.63192727321361539E-02  5.70265764817537088E-02
  5.77427348002544569E-02  5.84678574528853731E-02  5.92020555240992050E-02
  5.99454414318060513E-02  6.06981289417151959E-02  6.14602331817649394E-02
  6.22318706566379748E-02  6.30131592623598552E-02  6.38042183009777247E-02
  6.46051684953164451E-02  6.54161320038091632E-02  6.62372324353987380E-02
  6.70685948645068364E-02  6.79103458460671022E-02  6.87626134306179027E-02
  6.96255271794513214E-02  7.04992181798134998E-02  7.13838190601518291E-02
  7.22794640054044424E-02  7.31862887723262329E-02  7.41044307048467216E-02
  7.50340287494536684E-02  7.59752234705964313E-02  7.69281570661030228E-02
  7.78929733826040221E-02  7.88698179309564179E-02  7.98588379016603178E-02
  8.08601821802602816E-02  8.18740013627240609E-02  8.29004477707894344E-02
  8.39396754672709217E-02  8.49918402713168153E-02  8.60570997736068155E-02
  8.71356133514801373E-02  8.82275421839834179E-02  8.93330492668272941E-02
  9.04522994272400210E-02  9.15854593387056409E-02  9.27326975355743238E-02
  9.38941844275313076E-02  9.50700923139105453E-02  9.62605953978385442E-02
  9.74658698001929641E-02  9.86860935733604311E-02  9.99214467147766655E-02
  1.01172111180231825E-01  1.02438270896922839E-01  1.03720111776233970E-01
  1.05017821726226132E-01  1.06331590663813716E-01  1.07661610526608928E-01
  1.09008075284409811E-01  1.10371180950309900E-01  1.11751125591404807E-01
  1.13148109339070393E-01  1.14562334398787047E-01  1.15994005059481597E-01
  1.17443327702359449E-01  1.18910510809196845E-01  1.20395764970062324E-01
  1.21899302890435601E-01  1.23421339397690191E-01  1.24962091446905343E-01
  1.26521778125971041E-01  1.28100620659948289E-01  1.29698842414645854E-01
  1.31316668899373185E-01  1.32954327768826430E-01  1.34612048824064579E-01
  1.36290064012529299E-01  1.37988607427062315E-01  1.39707915303869445E-01
  1.41448226019381645E-01  1.43209780085959415E-01  1.44992820146385037E-01
  1.46797590967086389E-01  1.48624339430031810E-01  1.50473314523235119E-01
  1.52344767329806480E-01  1.54238951015482961E-01  1.56156120814569088E-01
  1.58096534014217305E-01  1.60060449936972660E-01  1.62048129921505801E-01
  1.64059837301454570E-01  1.66095837382290834E-01  1.68156397416127562E-01
  1.70241786574376802E-01  1.72352275918167347E-01  1.74488138366425627E-01
  1.76649648661521858E-01  1.78837083332378882E-01  1.81050720654937880E-01
  1.83290840609870720E-01  1.85557724837426136E-01  1.87851656589291371E-01
  1.90172920677348506E-01  1.92521803419198140E-01  1.94898592580322244E-01
  1.97303577312748807E-01  1.99737048090081720E-01  2.02199296638749082E-01
  2.04690615865323333E-01  2.07211299779757580E-01  2.09761643414379528E-01
  2.12341942738479089E-01  2.14952494568318830E-01  2.17593596472392764E-01
  2.20265546671752299E-01  2.22968643935211375E-01  2.25703187469239425E-01
  2.28469476802341476E-01  2.31267811663721790E-01  2.34098491856017221E-01
  2.36961817121883883E-01  2.39858087004210435E-01  2.42787600699727546E-01
  2.45750656905773329E-01  2.48747553659969228E-01  2.51778588172553053E-01
  2.54844056651108430E-01  2.57944254117422500E-01  2.61079474216194929E-01
  2.64250009015316423E-01  2.67456148797423132E-01  2.70698181842428554E-01
  2.73976394200725115E-01  2.77291069456738926E-01  2.80642488482513830E-01
  2.84030929180993208E-01  2.87456666218655899E-01  2.90919970747161416E-01
  2.94421110113640527E-01  2.97960347559271588E-01  3.01537941905761719E-01
  3.05154147229354300E-01  3.08809212521968024E-01  3.12503381339068464E-01
  3.16236891433863465E-01  3.20009974377406747E-01  3.23822855164183798E-01
  3.27675751802749105E-01  3.31568874890974086E-01  3.35502427175457862E-01
  3.39476603094647167E-01  3.43491588305204376E-01  3.47547559191155209E-01
  3.51644682355342797E-01  3.55783114092710073E-01  3.59962999844924914E-01
  3.64184473635861372E-01  3.68447657487443347E-01  3.72752660815357850E-01
  3.77099579804137885E-01  3.81488496761119844E-01  3.85919479448773806E-01
  3.90392580394911315E-01  3.94907836180272087E-01  3.99465266702999089E-01
  4.04064874419512554E-01  4.08706643561300043E-01  4.13390539327149087E-01
  4.18116507050357245E-01  4.22884471340464363E-01  4.27694335199062747E-01
  4.32545979109264345E-01  4.37439260098413829E-01  4.42374010773660675E-01
  4.47350038330025401E-01  4.52367123530617754E-01  4.57425019658698584E-01
  4.62523451441302191E-01  4.67662113944179891E-01  4.72840671437854632E-01
  4.78058756234628179E-01  4.83315967496423027E-01  4.88611870013396621E-01
  4.93945992953319535E-01  4.99317828581769929E-01  5.04726830953264982E-01
  5.10172414573519362E-01  5.15653953033100798E-01  5.21170777612831593E-01
  5.26722175861383701E-01  5.32307390145603243E-01  5.37925616174207422E-01
  5.43576001495613248E-01  5.49257643970767484E-01  5.54969590221984665E-01
  5.60710834058941843E-01  5.66480314883081371E-01  5.72276916071882247E-01
  5.78099463344602937E-01  5.83946723111268606E-01  5.89817400806865288E-01
  5.95710139212894063E-01  6.01623516768651556E-01  6.07556045874817929E-01
  6.13506171192159111E-01  6.19472267938401822E-01  6.25452640186584419E-01
  6.31445519168460256E-01  6.37449061586806143E-01  6.43461347940781803E-01
  6.49480380868797003E-01  6.55504083513650859E-01  6.61530297915052912E-01
  6.67556783434974488E-01  6.73581215221632834E-01  6.79601182718292507E-01
  6.85614188223438670E-01  6.91617645509286949E-01  6.97608878505983965E-01
  7.03585120059284752E-01  7.09543510769917174E-01  7.15481097923311937E-01
  7.21394834518672368E-01  7.27281578406979268E-01  7.33138091547938742E-01
  7.38961039396294650E-01  7.44746990428392319E-01  7.50492415820345093E-01
  7.56193689289592852E-01  7.61847087112076160E-01  7.67448788327691367E-01
  7.72994875147080096E-01  7.78481333573212253E-01  7.83904054251575722E-01
  7.89258833563118767E-01  7.94541374974394476E-01  7.99747290659595267E-01
  8.04872103409382755E-01  8.09911248841551301E-01  8.14860077928643789E-01
  8.19713859857648330E-01  8.24467785236809858E-01  8.29116969664423831E-01
  8.33656457674191720E-01  8.38081227071305612E-01  8.42386193672911676E-01
  8.46566216465955979E-01  8.50616103194569151E-01  8.54530616387767283E-01
  8.58304479837684986E-01  8.61932385536789303E-01  8.65409001080870266E-01
  8.68728977542777336E-01  8.71886957819690944E-01  8.74877585454314155E-01
  8.77695513927607140E-01  8.80335416417635019E-01  8.82791996015690139E-01
  8.85059996387062120E-01  8.87134212859676530E-01  8.89009503919229616E-01
  8.90680803084462069E-01  8.92143131130734512E-01  8.93391608624167555E-01
  8.94421468722190305E-01  8.95228070189435843E-01  8.95806910570516979E-01
  8.96153639453274198E-01  8.96264071747633340E-01  8.96134200896235633E-01
  8.95760211923497640E-01  8.95138494219765657E-01  8.94265653946786254E-01
  8.93138525939503158E-01  8.91754184968081676E-01  8.90109956212413178E-01
  8.88203424789006268E-01  8.86032444157941579E-01  8.83595143225090252E-01
  8.80889931942266280E-01  8.77915505195497881E-01  8.74670844759355193E-01
  8.71155219083350807E-01  8.67368180665118560E-01  8.63309560754477290E-01
  8.58979461122933441E-01  8.54378242624876272E-01  8.49506510270002790E-01
  8.44365094521680071E-01  8.38955028533414526E-01  8.33277521035683866E-01
  8.27333924588627090E-01  8.21125698922844038E-01  8.14654369101424636E-01
  8.07921478251809377E-01  8.00928534636751954E-01  7.93676952860149720E-01
  7.86167989035939097E-01  7.78402669788320623E-01  7.70381715003262135E-01
  7.62105454301277185E-01  7.53573737270298416E-01  7.44785837572948695E-01
  7.35740351128255754E-01  7.26435088664872830E-01  7.16866963047482764E-01
  7.07032928670063066E-01  6.96940597893427882E-01  6.86604572203426522E-01
  6.76039680437487522E-01  6.65260848584926179E-01  6.54283071394414439E-01
  6.43121384366989179E-01  6.31790836196091887E-01  6.20306461708962420E-01
  6.08683255358606679E-01  5.96936145310647537E-01  5.85079968148022878E-01
  5.73129444285953138E-01  5.61099154102339348E-01  5.49003514683147675E-01
  5.36856757423550768E-01  5.24672906364559655E-01  5.12465757311618031E-01
  5.00248857752376708E-01  4.88035487580126992E-01  4.75838640629107523E-01
  4.63671007029605620E-01  4.51544956388604091E-01  4.39472521801634597E-01
  4.27465384702100215E-01  4.15534860555587693E-01  4.03691885408534512E-01
  3.91947003302981323E-01  3.80310354572134246E-01  3.68791665034536864E-01
  3.57400236108011249E-01  3.46144935867896852E-01  3.35034191077114019E-01
  3.24075980218286097E-01  3.13277827560026034E-01  3.02646798290595320E-01
  2.92189494752157164E-01  2.81912053807558460E-01  2.71820145369099098E-01
  2.61918972114754844E-01  2.52213270412084967E-01  2.42707312463412511E-01
  2.33404909677801559E-01  2.24309417267919198E-01  2.15423740058990065E-01
  2.06750339486482526E-01  1.98291241750340991E-01  1.90048047082860577E-01
  1.82021940077365052E-01  1.74213701015552919E-01  1.66623718122904801E-01
  1.59252000674058231E-01  1.52098192863767745E-01  1.45161588353997534E-01
  1.38441145404033350E-01  1.31935502488131379E-01  1.25642994304249939E-01
  1.19561668077725919E-01  1.13689300065313220E-01  1.08023412167726637E-01
  1.02561288562548480E-01  9.72999922740588191E-02  9.22363816020276284E-02
  8.73671263376551571E-02  8.26887237015701687E-02  7.81975139459264168E-02
  7.38896955700871216E-02  6.97613401075814626E-02  6.58084064485184028E-02
  6.20267546679357101E-02  5.84121593423146679E-02  5.49603223401866764E-02
  5.16668850798897711E-02  4.85274402536706242E-02  4.55375430226190522E-02
  4.26927216915036142E-02  3.99884878762867477E-02  3.74203461799827858E-02
  3.49838033944945906E-02  3.26743772471621702E-02  3.04876047110469242E-02
  2.84190498974570931E-02  2.64643115480734555E-02  2.46190301422919908E-02
  2.28788946332525410E-02  2.12396488235794371E-02  1.96970973892588823E-02
  1.82471115574808010E-02  1.68856344417773821E-02  1.56086860355336508E-02
  1.44123678629966227E-02  1.32928672853543182E-02  1.22464614587077872E-02
  1.12695209397718921E-02  1.03585129326899811E-02  9.51000417541955981E-03
  8.72066346170346368E-03  7.98726379595664053E-03  7.30668418002137447E-03
  6.67591103236592123E-03  6.09203924212722674E-03  5.55227286234711778E-03
  5.05392544877629295E-03  4.59442005265816873E-03  4.17128887790000572E-03
  3.78217261495198158E-03  3.42481946550027110E-03  3.09708387371205153E-03
  2.79692498121778032E-03  2.52240482426208329E-03  2.27168629249099039E-03
  2.04303086965501287E-03  1.83479617710360270E-03  1.64543334131982762E-03
  1.47348420690873944E-03  1.31757841641613575E-03  1.17643037812669446E-03
  1.04883614267499816E-03  9.33670208792896110E-04  8.29882276780787519E-04
  7.36493969285824087E-04  6.52595537034732177E-04  5.77342566076000097E-04
  5.09952702146725459E-04  4.49702406631428248E-04  3.95923757391626748E-04
  3.48001306532566492E-04  3.05369005950090677E-04  2.67507210279470213E-04
  2.33939765661168674E-04  2.04231191555682073E-04  1.77983961691062850E-04
  1.54835889119922087E-04  1.34457619305180181E-04  1.16550234151103075E-04
  1.00842968953146825E-04  8.70910433605237864E-05  7.50736066319871608E-05
  6.45917967198270804E-05  5.54669120403575644E-05  4.75386941816153256E-05
  4.06637192596414907E-05  3.47138951692624036E-05  2.95750615850599486E-05
  2.51456890907056637E-05  2.13356737451054637E-05  1.80652230696772257E-05
  1.52638292342575025E-05  1.28693251248543308E-05  1.08270189001408635E-05
  9.08890260940873063E-06  7.61293044885739799E-06  6.36236227163798553E-06
  5.30516803600955467E-06  4.41348897151396613E-06  3.66315136145380382E-06
  3.03322897761791647E-06  2.50565035672000968E-06  2.06484727419018206E-06
  1.69744094680484174E-06  1.39196267837523952E-06  1.13860584981964195E-06
  9.29006344118126743E-07  7.56048685845840263E-07  6.13695362384943394E-07
                              </PP_CHI.1>
 <PP_CHI.2 type="real" size="   999" l="0" occupation=" 0.0000" columns="3" label= "0S">
 -4.29942173260290620E-05 -4.35350180081085160E-05 -4.40826211254721301E-05
 -4.46371122422266957E-05 -4.51985779987432312E-05 -4.57671061251945332E-05
 -4.63427854552633280E-05 -4.69257059400227558E-05 -4.75159586619912838E-05
 -4.81136358493647768E-05 -4.87188308904270556E-05 -4.93316383481421671E-05
 -4.99521539749300271E-05 -5.05804747276279292E-05 -5.12166987826404471E-05
 -5.18609255512793982E-05 -5.25132556952972687E-05 -5.31737911426157753E-05
 -5.38426351032522668E-05 -5.45198920854467230E-05 -5.52056679119911471E-05
 -5.59000697367647198E-05 -5.66032060614768417E-05 -5.73151867526207082E-05
 -5.80361230586403699E-05 -5.87661276273132243E-05 -5.95053145233517063E-05
 -6.02537992462260535E-05 -6.10116987482113330E-05 -6.17791314526617771E-05
 -6.25562172725143540E-05 -6.33430776290255831E-05 -6.41398354707437522E-05
 -6.49466152927199569E-05 -6.57635431559608824E-05 -6.65907467071258981E-05
 -6.74283551984722438E-05 -6.82764995080510732E-05 -6.91353121601572418E-05
 -7.00049273460368640E-05 -7.08854809448544542E-05 -7.17771105449246959E-05
 -7.26799554652110189E-05 -7.35941567770944131E-05 -7.45198573264162760E-05
 -7.54572017557979198E-05 -7.64063365272416202E-05 -7.73674099450158198E-05
 -7.83405721788279033E-05 -7.93259752872886635E-05 -8.03237732416714267E-05
 -8.13341219499707694E-05 -8.23571792812633217E-05 -8.33931050903751831E-05
 -8.44420612428600152E-05 -8.55042116402903758E-05 -8.65797222458680103E-05
 -8.76687611103559348E-05 -8.87714983983366608E-05 -8.98881064148012506E-05
 -9.10187596320718057E-05 -9.21636347170635132E-05 -9.33229105588892602E-05
 -9.44967682968113278E-05 -9.56853913485452342E-05 -9.68889654389186813E-05
 -9.81076786288919062E-05 -9.93417213449425960E-05 -1.00591286408820325E-04
 -1.01856569067675830E-04 -1.03137767024568275E-04 -1.04435080469357142E-04
 -1.05748712109982694E-04 -1.07078867204139289E-04 -1.08425753591347710E-04
 -1.09789581725430036E-04 -1.11170564707394095E-04 -1.12568918318730924E-04
 -1.13984861055131152E-04 -1.15418614160625810E-04 -1.16870401662155844E-04
 -1.18340450404577237E-04 -1.19828990086106029E-04 -1.21336253294209153E-04
 -1.22862475541947322E-04 -1.24407895304773966E-04 -1.25972754057797939E-04
 -1.27557296313514671E-04 -1.29161769660012242E-04 -1.30786424799657477E-04
 -1.32431515588268199E-04 -1.34097299074780661E-04 -1.35784035541412735E-04
 -1.37491988544333145E-04 -1.39221424954845023E-04 -1.40972615001083972E-04
 -1.42745832310241970E-04 -1.44541353951322825E-04 -1.46359460478434747E-04
 -1.48200435974628222E-04 -1.50064568096284389E-04 -1.51952148118062748E-04
 -1.53863470978413022E-04 -1.55798835325660166E-04 -1.57758543564670545E-04
 -1.59742901904102416E-04 -1.61752220404251523E-04 -1.63786813025500460E-04
 -1.65846997677375295E-04 -1.67933096268219816E-04 -1.70045434755495075E-04
 -1.72184343196710963E-04 -1.74350155800999092E-04 -1.76543210981334705E-04
 -1.78763851407414998E-04 -1.81012424059199140E-04 -1.83289280281129333E-04
 -1.85594775837029792E-04 -1.87929270965691571E-04 -1.90293130437165886E-04
 -1.92686723609757798E-04 -1.95110424487741826E-04 -1.97564611779801089E-04
 -2.00049668958200081E-04 -2.02565984318706143E-04 -2.05113951041262303E-04
 -2.07693967251421216E-04 -2.10306436082554130E-04 -2.12951765738843578E-04
 -2.15630369559067451E-04 -2.18342666081183242E-04 -2.21089079107725060E-04
 -2.23870037772027974E-04 -2.26685976605280303E-04 -2.29537335604421350E-04
 -2.32424560300893067E-04 -2.35348101830254919E-04 -2.38308417002677759E-04
 -2.41305968374321114E-04 -2.44341224319611359E-04 -2.47414659104425335E-04
 -2.50526752960199663E-04 -2.53677992158967130E-04 -2.56868869089338034E-04
 -2.60099882333441734E-04 -2.63371536744829663E-04 -2.66684343527363941E-04
 -2.70038820315093961E-04 -2.73435491253138198E-04 -2.76874887079589017E-04
 -2.80357545208439877E-04 -2.83884009813560806E-04 -2.87454831913726738E-04
 -2.91070569458723113E-04 -2.94731787416518606E-04 -2.98439057861555831E-04
 -3.02192960064136761E-04 -3.05994080580933824E-04 -3.09843013346650033E-04
 -3.13740359766817101E-04 -3.17686728811780370E-04 -3.21682737111842322E-04
 -3.25729009053623815E-04 -3.29826176877621730E-04 -3.33974880777010744E-04
 -3.38175768997667865E-04 -3.42429497939472475E-04 -3.46736732258870830E-04
 -3.51098144972735414E-04 -3.55514417563525286E-04 -3.59986240085778805E-04
 -3.64514311273936395E-04 -3.69099338651522797E-04 -3.73742038641706954E-04
 -3.78443136679247356E-04 -3.83203367323845803E-04 -3.88023474374933738E-04
 -3.92904210987891239E-04 -3.97846339791741116E-04 -4.02850633008310218E-04
 -4.07917872572902379E-04 -4.13048850256480301E-04 -4.18244367789387611E-04
 -4.23505236986628582E-04 -4.28832279874722766E-04 -4.34226328820154061E-04
 -4.39688226659436807E-04 -4.45218826830819840E-04 -4.50818993507647481E-04
 -4.56489601733388783E-04 -4.62231537558384701E-04 -4.68045698178295555E-04
 -4.73932992074299056E-04 -4.79894339155057632E-04 -4.85930670900462062E-04
 -4.92042930507184261E-04 -4.98232073036073211E-04 -5.04499065561387207E-04
 -5.10844887321916345E-04 -5.17270529874001568E-04 -5.23776997246484062E-04
 -5.30365306097593217E-04 -5.37036485873816183E-04 -5.43791578970770698E-04
 -5.50631640896087713E-04 -5.57557740434356814E-04 -5.64570959814139324E-04
 -5.71672394877086282E-04 -5.78863155249180147E-04 -5.86144364514135270E-04
 -5.93517160388979553E-04 -6.00982694901838559E-04 -6.08542134571968480E-04
 -6.16196660592043259E-04 -6.23947469012736547E-04 -6.31795770929633165E-04
 -6.39742792672490582E-04 -6.47789775996869912E-04 -6.55937978278195205E-04
 -6.64188672708236573E-04 -6.72543148494087091E-04 -6.81002711059626540E-04
 -6.89568682249516859E-04 -6.98242400535786030E-04 -7.07025221226985855E-04
 -7.15918516679997573E-04 -7.24923676514504069E-04 -7.34042107830142239E-04
 -7.43275235426407266E-04 -7.52624502025320968E-04 -7.62091368496895004E-04
 -7.71677314087430128E-04 -7.81383836650697151E-04 -7.91212452882014781E-04
 -8.01164698555301862E-04 -8.11242128763064660E-04 -8.21446318159436062E-04
 -8.31778861206288931E-04 -8.42241372422398884E-04 -8.52835486635786710E-04
 -8.63562859239208657E-04 -8.74425166448883394E-04 -8.85424105566450111E-04
 -8.96561395244245790E-04 -9.07838775753920524E-04 -9.19258009258400199E-04
 -9.30820880087322093E-04 -9.42529195015906094E-04 -9.54384783547330387E-04
 -9.66389498198687281E-04 -9.78545214790510834E-04 -9.90853832739972120E-04
 -1.00331727535774842E-03 -1.01593749014863215E-03 -1.02871644911592636E-03
 -1.04165614906968451E-03 -1.05475861193879135E-03 -1.06802588508703232E-03
 -1.08146004163306572E-03 -1.09506318077450177E-03 -1.10883742811601128E-03
 -1.12278493600155246E-03 -1.13690788385085529E-03 -1.15120847850004831E-03
 -1.16568895454663272E-03 -1.18035157469878645E-03 -1.19519863012906066E-03
 -1.21023244083253855E-03 -1.22545535598948254E-03 -1.24086975433257917E-03
 -1.25647804451877831E-03 -1.27228266550583773E-03 -1.28828608693359859E-03
 -1.30449080951004922E-03 -1.32089936540227913E-03 -1.33751431863233356E-03
 -1.35433826547806994E-03 -1.37137383487903174E-03 -1.38862368884747371E-03
 -1.40609052288455448E-03 -1.42377706640173175E-03 -1.44168608314752074E-03
 -1.45982037163959835E-03 -1.47818276560233671E-03 -1.49677613440990574E-03
 -1.51560338353487587E-03 -1.53466745500253562E-03 -1.55397132785091148E-03
 -1.57351801859657772E-03 -1.59331058170634901E-03 -1.61335211007488885E-03
 -1.63364573550838377E-03 -1.65419462921426240E-03 -1.67500200229711072E-03
 -1.69607110626084035E-03 -1.71740523351715849E-03 -1.73900771790050390E-03
 -1.76088193518938812E-03 -1.78303130363438307E-03 -1.80545928449274071E-03
 -1.82816938256972475E-03 -1.85116514676680346E-03 -1.87445017063672735E-03
 -1.89802809294563140E-03 -1.92190259824219630E-03 -1.94607741743400169E-03
 -1.97055632837117752E-03 -1.99534315643730940E-03 -2.02044177514795449E-03
 -2.04585610675656364E-03 -2.07159012286812832E-03 -2.09764784506055865E-03
 -2.12403334551384973E-03 -2.15075074764725866E-03 -2.17780422676445940E-03
 -2.20519801070686401E-03 -2.23293638051523177E-03 -2.26102367109951496E-03
 -2.28946427191728053E-03 -2.31826262766061941E-03 -2.34742323895174767E-03
 -2.37695066304741999E-03 -2.40684951455216734E-03 -2.43712446614058678E-03
 -2.46778024928880286E-03 -2.49882165501504267E-03 -2.53025353462965792E-03
 -2.56208080049462068E-03 -2.59430842679253754E-03 -2.62694145030549714E-03
 -2.65998497120362729E-03 -2.69344415384374560E-03 -2.72732422757800521E-03
 -2.76163048757281605E-03 -2.79636829563808522E-03 -2.83154308106699530E-03
 -2.86716034148633281E-03 -2.90322564371761670E-03 -2.93974462464910869E-03
 -2.97672299211886732E-03 -3.01416652580894888E-03 -3.05208107815089667E-03
 -3.09047257524281771E-03 -3.12934701777789178E-03 -3.16871048198479489E-03
 -3.20856912057989078E-03 -3.24892916373161400E-03 -3.28979692003696046E-03
 -3.33117877751039652E-03 -3.37308120458533651E-03 -3.41551075112820268E-03
 -3.45847404946545605E-03 -3.50197781542358833E-03 -3.54602884938228554E-03
 -3.59063403734101493E-03 -3.63580035199911802E-03 -3.68153485384946268E-03
 -3.72784469228628181E-03 -3.77473710672678996E-03 -3.82221942774720481E-03
 -3.87029907823304049E-03 -3.91898357454426808E-03 -3.96828052769499472E-03
 -4.01819764454834204E-03 -4.06874272902639847E-03 -4.11992368333563563E-03
 -4.17174850920780816E-03 -4.22422530915680938E-03 -4.27736228775132607E-03
 -4.33116775290386894E-03 -4.38565011717604800E-03 -4.44081789910065906E-03
 -4.49667972452044533E-03 -4.55324432794405702E-03 -4.61052055391921508E-03
 -4.66851735842343379E-03 -4.72724381027243151E-03 -4.78670909254661370E-03
 -4.84692250403567695E-03 -4.90789346070170246E-03 -4.96963149716097251E-03
 -5.03214626818466928E-03 -5.09544755021880402E-03 -5.15954524292360286E-03
 -5.22444937073252968E-03 -5.29017008443140226E-03 -5.35671766275748473E-03
 -5.42410251401948505E-03 -5.49233517773779246E-03 -5.56142632630631135E-03
 -5.63138676667513608E-03 -5.70222744205515879E-03 -5.77395943364443498E-03
 -5.84659396237678826E-03 -5.92014239069282855E-03 -5.99461622433383485E-03
 -6.07002711415873582E-03 -6.14638685798443024E-03 -6.22370740244991647E-03
 -6.30200084490428573E-03 -6.38127943531939003E-03 -6.46155557822686039E-03
 -6.54284183468043911E-03 -6.62515092424345933E-03 -6.70849572700223194E-03
 -6.79288928560537689E-03 -6.87834480732954241E-03 -6.96487566617210938E-03
 -7.05249540497081360E-03 -7.14121773755104459E-03 -7.23105655090093037E-03
 -7.32202590737494278E-03 -7.41414004692574329E-03 -7.50741338936566915E-03
 -7.60186053665726832E-03 -7.69749627523384338E-03 -7.79433557835042257E-03
 -7.89239360846531735E-03 -7.99168571965287906E-03 -8.09222746004794637E-03
 -8.19403457432217250E-03 -8.29712300619302179E-03 -8.40150890096555067E-03
 -8.50720860810788397E-03 -8.61423868386015576E-03 -8.72261589387835802E-03
 -8.83235721591255768E-03 -8.94347984252095822E-03 -9.05600118381945374E-03
 -9.16993887026782556E-03 -9.28531075549277572E-03 -9.40213491914842180E-03
 -9.52042966981489144E-03 -9.64021354793532029E-03 -9.76150532879219157E-03
 -9.88432402552306792E-03 -1.00086888921770978E-02 -1.01346194268117449E-02
 -1.02621353746317080E-02 -1.03912567311694876E-02 -1.05220037455087522E-02
 -1.06543969235512685E-02 -1.07884570313277316E-02 -1.09242050983532086E-02
 -1.10616624210282104E-02 -1.12008505660855431E-02 -1.13417913740841304E-02
 -1.14845069629501955E-02 -1.16290197315666831E-02 -1.17753523634117965E-02
 -1.19235278302469334E-02 -1.20735693958553564E-02 -1.22255006198321928E-02
 -1.23793453614262361E-02 -1.25351277834349177E-02 -1.26928723561529136E-02
 -1.28526038613752946E-02 -1.30143473964563668E-02 -1.31781283784245720E-02
 -1.33439725481547811E-02 -1.35119059745990207E-02 -1.36819550590757278E-02
 -1.38541465396199229E-02 -1.40285074953936176E-02 -1.42050653511591202E-02
 -1.43838478818148121E-02 -1.45648832169955299E-02 -1.47481998457379120E-02
 -1.49338266212121970E-02 -1.51217927655217695E-02 -1.53121278745705410E-02
 -1.55048619230010228E-02 -1.57000252692028643E-02 -1.58976486603933480E-02
 -1.60977632377720357E-02 -1.63004005417495094E-02 -1.65055925172523203E-02
 -1.67133715191055861E-02 -1.69237703174936714E-02 -1.71368221035016789E-02
 -1.73525604947380695E-02 -1.75710195410403655E-02 -1.77922337302655609E-02
 -1.80162379941661600E-02 -1.82430677143543690E-02 -1.84727587283550279E-02
 -1.87053473357497342E-02 -1.89408703044132050E-02 -1.91793648768440496E-02
 -1.94208687765918715E-02 -1.96654202147814872E-02 -1.99130578967375849E-02
 -2.01638210287103797E-02 -2.04177493247054663E-02 -2.06748830134177754E-02
 -2.09352628452754257E-02 -2.11989300995905315E-02 -2.14659265918238883E-02
 -2.17362946809626541E-02 -2.20100772770141888E-02 -2.22873178486186728E-02
 -2.25680604307830664E-02 -2.28523496327371900E-02 -2.31402306459167310E-02
 -2.34317492520738774E-02 -2.37269518315196409E-02 -2.40258853714985093E-02
 -2.43285974747010532E-02 -2.46351363679145098E-02 -2.49455509108158884E-02
 -2.52598906049101846E-02 -2.55782056026164738E-02 -2.59005467165052197E-02
 -2.62269654286900571E-02 -2.65575139003768820E-02 -2.68922449815746055E-02
 -2.72312122209698373E-02 -2.75744698759692319E-02 -2.79220729229146224E-02
 -2.82740770674723071E-02 -2.86305387552018668E-02 -2.89915151823086220E-02
 -2.93570643065817587E-02 -2.97272448585256185E-02 -3.01021163526846054E-02
 -3.04817390991685665E-02 -3.08661742153824685E-02 -3.12554836379647094E-02
 -3.16497301349386168E-02 -3.20489773180823098E-02 -3.24532896555215084E-02
 -3.28627324845506066E-02 -3.32773720246868632E-02 -3.36972753909630315E-02
 -3.41225106074643306E-02 -3.45531466211143681E-02 -3.49892533157164995E-02
 -3.54309015262560464E-02 -3.58781630534698998E-02 -3.63311106786881124E-02
 -3.67898181789555329E-02 -3.72543603424388900E-02 -3.77248129841263879E-02
 -3.82012529618248886E-02 -3.86837581924641336E-02 -3.91724076687128969E-02
 -3.96672814759152087E-02 -4.01684608093525602E-02 -4.06760279918429099E-02
 -4.11900664916790699E-02 -4.17106609409183954E-02 -4.22378971540304723E-02
 -4.27718621469093466E-02 -4.33126441562606615E-02 -4.38603326593711637E-02
 -4.44150183942678758E-02 -4.49767933802790523E-02 -4.55457509390006232E-02
 -4.61219857156819485E-02 -4.67055937010376621E-02 -4.72966722534932868E-02
 -4.78953201218783597E-02 -4.85016374685708490E-02 -4.91157258931090371E-02
 -4.97376884562729590E-02 -5.03676297046515842E-02 -5.10056556957030130E-02
 -5.16518740233160162E-02 -5.23063938438857803E-02 -5.29693259029125688E-02
 -5.36407825621321860E-02 -5.43208778271903059E-02 -5.50097273758691913E-02
 -5.57074485868770120E-02 -5.64141605692107043E-02 -5.71299841920994214E-02
 -5.78550421155417938E-02 -5.85894588214440001E-02 -5.93333606453691834E-02
 -6.00868758089047883E-02 -6.08501344526613669E-02 -6.16232686699064863E-02
 -6.24064125408440168E-02 -6.31997021675478193E-02 -6.40032757095523319E-02
 -6.48172734201130779E-02 -6.56418376831375550E-02 -6.64771130507941094E-02
 -6.73232462818053462E-02 -6.81803863804234384E-02 -6.90486846360984230E-02
 -6.99282946638351832E-02 -7.08193724452389622E-02 -7.17220763702553638E-02
 -7.26365672795939027E-02 -7.35630085078384094E-02 -7.45015659272348224E-02
 -7.54524079921497226E-02 -7.64157057841913373E-02 -7.73916330579816347E-02
 -7.83803662875632162E-02 -7.93820847134275448E-02 -8.03969703901417643E-02
 -8.14252082345578304E-02 -8.24669860745680383E-02 -8.35224946983887939E-02
 -8.45919279043324396E-02 -8.56754825510307322E-02 -8.67733586080708663E-02
 -8.78857592069926113E-02 -8.90128906926004743E-02 -9.01549626745272031E-02
 -9.13121880789891094E-02 -9.24847832006575332E-02 -9.36729677545782430E-02
 -9.48769649280427757E-02 -9.60970014323230676E-02 -9.73333075541729514E-02
 -9.85861172069708164E-02 -9.98556679813994430E-02 -1.01142201195512718E-01
 -1.02445961944059860E-01 -1.03767199146899400E-01 -1.05106165596341478E-01
 -1.06463118003227136E-01 -1.07838317041547421E-01 -1.09232027391390027E-01
 -1.10644517779971613E-01 -1.12076061020511777E-01 -1.13526934048671826E-01
 -1.14997417956261672E-01 -1.16487798021909200E-01 -1.17998363738332682E-01
 -1.19529408835873166E-01 -1.21081231301865211E-01 -1.22654133395445411E-01
 -1.24248421657326080E-01 -1.25864406914050958E-01 -1.27502404276206460E-01
 -1.29162733130024909E-01 -1.30845717121772176E-01 -1.32551684134273151E-01
 -1.34280966254881090E-01 -1.36033899734146951E-01 -1.37810824934390924E-01
 -1.39612086267331625E-01 -1.41438032119849150E-01 -1.43289014766921574E-01
 -1.45165390270686839E-01 -1.47067518364522309E-01 -1.48995762320953296E-01
 -1.50950488802125166E-01 -1.52932067691486651E-01 -1.54940871905246996E-01
 -1.56977277182060643E-01 -1.59041661849311594E-01 -1.61134406564245852E-01
 -1.63255894028095511E-01 -1.65406508671207653E-01 -1.67586636307082704E-01
 -1.69796663753066929E-01 -1.72036978415324532E-01 -1.74307967835540006E-01
 -1.76610019196668633E-01 -1.78943518784856093E-01 -1.81308851404488547E-01
 -1.83706399743142457E-01 -1.86136543682995426E-01 -1.88599659555055310E-01
 -1.91096119332346659E-01 -1.93626289757947018E-01 -1.96190531403543977E-01
 -1.98789197653897021E-01 -2.01422633612316299E-01 -2.04091174922002350E-01
 -2.06795146497767701E-01 -2.09534861162354119E-01 -2.12310618181215383E-01
 -2.15122701689289708E-01 -2.17971379002918658E-01 -2.20856898809662333E-01
 -2.23779489228387141E-01 -2.26739355731533115E-01 -2.29736678921070719E-01
 -2.32771612149134693E-01 -2.35844278973894816E-01 -2.38954770440638953E-01
 -2.42103142177595709E-01 -2.45289411295386783E-01 -2.48513553078478638E-01
 -2.51775497456359520E-01 -2.55075125241572054E-01 -2.58412264121046509E-01
 -2.61786684386527968E-01 -2.65198094389173744E-01 -2.68646135702680644E-01
 -2.72130377978506366E-01 -2.75650313476038578E-01 -2.79205351249777356E-01
 -2.82794810974671684E-01 -2.86417916389947458E-01 -2.90073788340947325E-01
 -2.93761437397534131E-01 -2.97479756026771291E-01 -3.01227510296615819E-01
 -3.05003331086452945E-01 -3.08805704779323231E-01 -3.12632963409759990E-01
 -3.16483274240162149E-01 -3.20354628737679226E-01 -3.24244830922608918E-01
 -3.28151485058367387E-01 -3.32071982652124176E-01 -3.36003488734312572E-01
 -3.39942927384302207E-01 -3.43886966468673838E-01 -3.47832001557757564E-01
 -3.51774138985301354E-01 -3.55709178015483019E-01 -3.59632592080883384E-01
 -3.63539509054509824E-01 -3.67424690518574903E-01 -3.71282509992473309E-01
 -3.75106930082154622E-01 -3.78891478513572300E-01 -3.82629223012614261E-01
 -3.86312744994515622E-01 -3.89934112026510515E-01 -3.93484849028455042E-01
 -3.96955908177306527E-01 -4.00337637483026088E-01 -4.03619748005344114E-01
 -4.06791279683230811E-01 -4.09840565751718289E-01 -4.12755195723992496E-01
 -4.15521976920559422E-01 -4.18126894531678395E-01 -4.20555070204373105E-01
 -4.22790719151116212E-01 -4.24817105783802273E-01 -4.26616497884088230E-01
 -4.28170119329388699E-01 -4.29458101403164261E-01 -4.30459432728412528E-01
 -4.31151907874757989E-01 -4.31512074702218307E-01 -4.31515180518691088E-01
 -4.31135117143631230E-01 -4.30344364987227168E-01 -4.29113936272872032E-01
 -4.27413317551103122E-01 -4.25210411674748490E-01 -4.22471479429012808E-01
 -4.19161081036242333E-01 -4.15242017782961548E-01 -4.10675274046942540E-01
 -4.05419960034562099E-01 -3.99433255573557577E-01 -3.92670355343653854E-01
 -3.85084415967486215E-01 -3.76626505426817360E-01 -3.67245555314355654E-01
 -3.56888316479562928E-01 -3.45499318677636114E-01 -3.33020834884602546E-01
 -3.19392850997831157E-01 -3.04553041700550031E-01 -2.88436753330841456E-01
 -2.70976994660056536E-01 -2.52104436552549105E-01 -2.31747421547790378E-01
 -2.09831984477078126E-01 -1.86281885299965810E-01 -1.61018655419684104E-01
 -1.33961658812823542E-01 -1.05028169384294795E-01 -7.41334660263563566E-02
 -4.11909469461435307E-02 -6.11226489309026413E-03  3.11925150127437961E-02
  7.08147330838548583E-02  1.12846926671182846E-01  1.57382593689040423E-01
  2.04515926128229719E-01  2.54341511588613123E-01  3.06954000835748919E-01
  3.62447739372543876E-01  4.20916361018572660E-01  4.82452341508920302E-01
  5.47146510163785682E-01  6.15087517742174850E-01  6.86361258680858066E-01
  7.61050246036298894E-01  8.39232937595848383E-01  9.20983011808199303E-01
  1.00636859240596599E+00  1.09545142085824865E+00  1.18828597610234166E+00
  1.28491854136493244E+00  1.38538621829716768E+00  1.48971588910927211E+00
  1.59792312795474367E+00  1.71001106339537512E+00  1.82596919441093197E+00
  1.94577216318489410E+00  2.06937848869253882E+00  2.19672926599346585E+00
  2.32774683708068153E+00  2.46233344016085809E+00  2.60036984533399318E+00
  2.74171398580246528E+00  2.88619959496471390E+00  3.03363486103114521E+00
  3.18380111213158346E+00  3.33645154625302665E+00  3.49131002174205074E+00
  3.64806992551094122E+00  3.80639313748268382E+00  3.96590911117538392E+00
  4.12621409163605080E+00  4.28687049315897717E+00  4.44740646033240417E+00
  4.60731563691303592E+00  4.76605716779226185E+00  4.92305595984629552E+00
  5.07770322771710436E+00  5.22935735049653694E+00  5.37734506475135188E+00
  5.52096301849679083E+00  5.65947970930816346E+00  5.79213782780737230E+00
  5.91815702521481946E+00  6.03673712042342814E+00  6.14706175763630913E+00
  6.24831161209104025E+00  6.33975949989053778E+00  6.42073862970039411E+00
  6.49058654307414251E+00  6.54864751674012702E+00  6.59427610003645270E+00
  6.62684090807992288E+00  6.64572867242769938E+00  6.65034854893674776E+00
  6.64013668030067805E+00  6.61456100823669502E+00  6.57312632741389447E+00
  6.51537957042176075E+00  6.44091530925212830E+00  6.34938145456677194E+00
  6.24048513139209504E+00  6.11399870388009781E+00  5.96976591781027732E+00
  5.80770812387810320E+00  5.62783053979301329E+00  5.43022850342218533E+00
  5.21509366306760569E+00  4.98272004479809372E+00  4.73350993033867695E+00
  4.46797947245993932E+00  4.18676396816936691E+00  3.89062270335610494E+00
  3.58044327595711520E+00  3.25724529829350296E+00  2.92218337306715403E+00
  2.57654923173172712E+00  2.22177291869201010E+00  1.85942290018399370E+00
  1.49120497292126997E+00  1.11895984483817412E+00  7.44659258734308160E-01
  3.70400529556151548E-01 -1.60063230611855764E-03 -3.69019135686696031E-01
 -7.29431479319939791E-01 -1.08032878799658860E+00 -1.41913201213836038E+00
 -1.74320937407214882E+00 -2.04989612516378106E+00 -2.33651665531034736E+00
 -2.60040896994504189E+00 -2.83895151719793848E+00 -3.04959231103259221E+00
 -3.22988025393339084E+00 -3.37749851499975673E+00 -3.49029976606658199E+00
 -3.56634301978572354E+00 -3.60393174969093888E+00 -3.60165290353031953E+00
 -3.55841634819220820E+00 -3.47349420821840260E+00 -3.34655948129684999E+00
 -3.17772323465071960E+00 -2.96756960759595234E+00 -2.71718776975883269E+00
 -2.42819991389655820E+00 -2.10278429966127067E+00 -1.74369231303255234E+00
 -1.35425846886766910E+00 -9.38402264712872691E-01 -5.00620796530232726E-01
 -4.59710753233977670E-02  4.19958958203759281E-01  8.91091632234794706E-01
  1.36091373622494194E+00  1.82254431678166218E+00  2.26881647274007836E+00
  2.69237328381880037E+00  3.08577769887759645E+00  3.44163585413889539E+00
  3.75273289020975698E+00  4.01217989253787710E+00  4.21357009818010830E+00
  4.35114199980516680E+00  4.41994644545988624E+00  4.41601429218861785E+00
  4.33652063826651002E+00  4.17994115057791227E+00  3.94619554137302009E+00
  3.63677285580881504E+00  3.25483293433265608E+00  2.80527824014817728E+00
  2.29479022121446175E+00  1.73182453858776797E+00  1.12655986811263831E+00
  4.90795598441277070E-01 -1.62205370272835880E-01 -8.17931356805276844E-01
 -1.46089532671668354E+00 -2.07496641779672952E+00 -2.64375691073040597E+00
 -3.15105967500547202E+00 -3.58132857163926621E+00 -3.92019158000670398E+00
 -4.15498361488783008E+00 -4.27528321376391496E+00 -4.27343462760488357E+00
 -4.14503448644309991E+00 -3.88936029853504195E+00 -3.50971675860290411E+00
 -3.01367537549664322E+00 -2.41318347283791290E+00 -1.72452034901231954E+00
 -9.68081464972791794E-01 -1.67976083329350823E-01  6.48570118629861470E-01
  1.45200829467645409E+00  2.21144726292805061E+00  2.89580328320921199E+00
  3.47508880440169854E+00  3.92179835854925463E+00  4.21233798495099432E+00
  4.32843353822529053E+00  4.25844378895358044E+00  3.99849721370260669E+00
  3.55336794711062431E+00  2.93700725938624663E+00  2.17265312127242138E+00
  1.29245264583347197E+00  3.36550894392951605E-01 -6.48375189685139630E-01
 -1.61112745998828033E+00 -2.49849479771923288E+00 -3.25817126433944360E+00
 -3.84195441385357839E+00 -4.20905316218965098E+00 -4.32929850168355923E+00
 -4.18602284436500849E+00 -3.77835896021932616E+00 -3.12271132020380016E+00
 -2.25317462999481632E+00 -1.22071895699840205E+00 -9.10291559780075921E-02
  1.05902262197376595E+00  2.14618199579933355E+00  3.08668161688304288E+00
  3.80283252606389244E+00  4.22987353014937995E+00  4.32251284985723494E+00
  4.06052936998553982E+00  3.45278388455583407E+00  2.53903595065557397E+00
  1.38907833616270637E+00  9.88917500427797247E-02 -1.21621744225897754E+00
 -2.43121883963205709E+00 -3.42307594103144597E+00 -4.08361616095578572E+00
 -4.33229174024361186E+00 -4.12738368831325264E+00 -3.47409890660732579E+00
 -2.42819327339740498E+00 -1.09401646963852683E+00  3.83569764033626137E-01
  1.83324876785000601E+00  3.07630841452578485E+00  3.94887509931949765E+00
  4.32477304476429669E+00  4.13585776047290121E+00  3.38660631128652456E+00
                              </PP_CHI.2>
 <PP_CHI.3 type="real" size="   999" l="1" occupation=" 4.0000" columns="3" label= "3P">
  3.29276761900132803E-09  3.37612442798113647E-09  3.46159142461889998E-09
  3.54922202856909543E-09  3.63907101181118855E-09  3.73119453288387001E-09
  3.82565017198599081E-09  3.92249696696604585E-09  4.02179545022274785E-09
  4.12360768653977719E-09  4.22799731187824809E-09  4.33502957315126574E-09
  4.44477136900537968E-09  4.55729129163440409E-09  4.67265966965178865E-09
  4.79094861204825026E-09  4.91223205326227288E-09  5.03658579939151620E-09
  5.16408757557408253E-09  5.29481707456930982E-09  5.42885600656826299E-09
  5.56628815026529755E-09  5.70719940522246944E-09  5.85167784555953890E-09
  5.99981377500318769E-09  6.15169978332974195E-09  6.30743080423681894E-09
  6.46710417467996363E-09  6.63081969571141053E-09  6.79867969485901278E-09
  6.97078909008421439E-09  7.14725545535924258E-09  7.32818908790429199E-09
  7.51370307712689432E-09  7.70391337530650264E-09  7.89893887006836085E-09
  8.09890145869219200E-09  8.30392612430193348E-09  8.51414101398423565E-09
  8.72967751888463349E-09  8.95067035633115456E-09  9.17725765403712310E-09
  9.40958103643542497E-09  9.64778571319836906E-09  9.89202056999853649E-09
  1.01424382615670148E-08  1.03991953071076706E-08  1.06624521881267008E-08
  1.09323734487387669E-08  1.12091277985124868E-08  1.14928882179192631E-08
  1.17838320664518035E-08  1.20821411934795029E-08  1.23880020519102078E-08
  1.27016058147294052E-08  1.30231484944894282E-08  1.33528310658237190E-08
  1.36908595910625169E-08  1.40374453490284358E-08  1.43928049670927114E-08
  1.47571605565741669E-08  1.51307398515660934E-08  1.55137763512774347E-08
  1.59065094659773159E-08  1.63091846666343481E-08  1.67220536383437783E-08
  1.71453744376389472E-08  1.75794116537849480E-08  1.80244365741554664E-08
  1.84807273537963025E-08  1.89485691892811204E-08  1.94282544969686481E-08
  1.99200830957723666E-08  2.04243623945569906E-08  2.09414075842791144E-08
  2.14715418349915645E-08  2.20150964978352534E-08  2.25724113121443901E-08
  2.31438346177944935E-08  2.37297235729262389E-08  2.43304443771806408E-08
  2.49463725005858144E-08  2.55778929182378797E-08  2.62254003509227722E-08
  2.68892995118297064E-08  2.75700053595097371E-08  2.82679433572384323E-08
  2.89835497389441500E-08  2.97172717818682817E-08  3.04695680861281849E-08
  3.12409088613567959E-08  3.20317762205989910E-08  3.28426644816478191E-08
  3.36740804760089847E-08  3.45265438656871459E-08  3.54005874679911077E-08
  3.62967575885620835E-08  3.72156143628322042E-08  3.81577321061272698E-08
  3.91236996726325693E-08  4.01141208234453061E-08  4.11296146039450804E-08
  4.21708157307170841E-08  4.32383749882703177E-08  4.43329596357992563E-08
  4.54552538242418287E-08  4.66059590238960608E-08  4.77857944628615204E-08
  4.89954975765799984E-08  5.02358244687566464E-08  5.15075503839486158E-08
  5.28114701921181631E-08  5.41483988854518445E-08  5.55191720877567601E-08
  5.69246465767525306E-08  5.83657008195844194E-08  5.98432355218938124E-08
  6.13581741907880652E-08  6.29114637120619913E-08  6.45040749420321229E-08
  6.61370033143525113E-08  6.78112694621931037E-08  6.95279198561678365E-08
  7.12880274584123797E-08  7.30926923932201160E-08  7.49430426346543431E-08
  7.68402347115685896E-08  7.87854544304739158E-08  8.07799176167058187E-08
  8.28248708743543329E-08  8.49215923654305275E-08  8.70713926087591168E-08
  8.92756152990942600E-08  9.15356381469715887E-08  9.38528737398211045E-08
  9.62287704248798464E-08  9.86648132144537475E-08  1.01162524714098602E-07
  1.03723466074296348E-07  1.06349237966223593E-07  1.09041481582222656E-07
  1.11801879661597565E-07  1.14632157542380373E-07  1.17534084239721520E-07
  1.20509473551580291E-07  1.23560185192406511E-07  1.26688125955519663E-07
  1.29895250904915810E-07  1.33183564597243662E-07  1.36555122334715670E-07
  1.40012031449737626E-07  1.43556452622055878E-07  1.47190601229251286E-07
  1.50916748731419633E-07  1.54737224090904644E-07  1.58654415227974083E-07
  1.62670770513342598E-07  1.66788800298481190E-07  1.71011078484665198E-07
  1.75340244131742229E-07  1.79779003107628290E-07  1.84330129779557643E-07
  1.88996468748149749E-07  1.93780936625372458E-07  1.98686523857515034E-07
  2.03716296594310964E-07  2.08873398605374111E-07  2.14161053245153531E-07
  2.19582565467628889E-07  2.25141323892008515E-07  2.30840802920721762E-07
  2.36684564911025133E-07  2.42676262401586678E-07  2.48819640395433829E-07
  2.55118538700694150E-07  2.61576894330595106E-07  2.68198743964214370E-07
  2.74988226469528600E-07  2.81949585490331475E-07  2.89087172098639225E-07
  2.96405447514243966E-07  3.03908985893108678E-07  3.11602477186353492E-07
  3.19490730071616648E-07  3.27578674958621260E-07  3.35871367070831421E-07
  3.44373989605114961E-07  3.53091856971398087E-07  3.62030418114329067E-07
  3.71195259919030003E-07  3.80592110703067601E-07  3.90226843796818138E-07
  4.00105481214472679E-07  4.10234197417973827E-07  4.20619323176234254E-07
  4.31267349522055299E-07  4.42184931809206414E-07  4.53378893872218422E-07
  4.64856232291476939E-07  4.76624120766285672E-07  4.88689914598638970E-07
  5.01061155290491507E-07  5.13745575257414789E-07  5.26751102661577998E-07
  5.40085866367072210E-07  5.53758201020684957E-07  5.67776652261282345E-07
  5.82149982061078112E-07  5.96887174202110014E-07  6.11997439891351036E-07
  6.27490223517975925E-07  6.43375208556355925E-07  6.59662323618502004E-07
  6.76361748659717055E-07  6.93483921341343500E-07  7.11039543554589346E-07
  7.29039588109491141E-07  7.47495305593217783E-07  7.66418231401988117E-07
  7.85820192950995376E-07  8.05713317066859588E-07  8.26110037567204501E-07
  8.47023103032120181E-07  8.68465584772356315E-07  8.90450884999222229E-07
  9.12992745201321232E-07  9.36105254733314882E-07  9.59802859622135112E-07
  9.84100371596105154E-07  1.00901297734263791E-06  1.03455624800029447E-06
  1.06074614889111548E-06  1.08759904949933886E-06  1.11513173370271690E-06
  1.14336141026284017E-06  1.17230572358102002E-06  1.20198276472644218E-06
  1.23241108274350881E-06  1.26360969624541158E-06  1.29559810530119088E-06
  1.32839630362372488E-06  1.36202479106622557E-06  1.39650458643510177E-06
  1.43185724062716258E-06  1.46810485009938893E-06  1.50527007067967562E-06
  1.54337613172719752E-06  1.58244685065122688E-06  1.62250664779748745E-06
  1.66358056171136659E-06  1.70569426478747042E-06  1.74887407931538148E-06
  1.79314699393156295E-06  1.83854068048776162E-06  1.88508351134641633E-06
  1.93280457711387207E-06  1.98173370482252732E-06  2.03190147657321751E-06
  2.08333924864953545E-06  2.13607917111602457E-06  2.19015420791244911E-06
  2.24559815745678129E-06  2.30244567376969519E-06  2.36073228813382859E-06
  2.42049443130134189E-06  2.48176945626360201E-06  2.54459566159730603E-06
  2.60901231540155357E-06  2.67505967984087414E-06  2.74277903630955327E-06
  2.81221271123293321E-06  2.88340410252187865E-06  2.95639770669688039E-06
  3.03123914669879562E-06  3.10797520040357686E-06  3.18665382985880717E-06
  3.26732421126034943E-06  3.35003676568777378E-06  3.43484319061784478E-06
  3.52179649223574185E-06  3.61095101856413560E-06  3.70236249343095100E-06
  3.79608805129691885E-06  3.89218627296476369E-06  3.99071722219231097E-06
  4.09174248323237860E-06  4.19532519932298120E-06  4.30153011215175123E-06
  4.41042360231945087E-06  4.52207373082767366E-06  4.63655028161673418E-06
  4.75392480518036339E-06  4.87427066328438121E-06  4.99766307481737082E-06
  5.12417916280196784E-06  5.25389800259609092E-06  5.38690067131437590E-06
  5.52327029850051490E-06  5.66309211808230157E-06  5.80645352164180838E-06
  5.95344411303392184E-06  6.10415576438747351E-06  6.25868267352385011E-06
  6.41712142282902411E-06  6.57957103961582530E-06  6.74613305801402342E-06
  6.91691158242707961E-06  7.09201335259505269E-06  7.27154781030443991E-06
  7.45562716778656856E-06  7.64436647784723144E-06  7.83788370577150432E-06
  8.03629980304854416E-06  8.23973878296252540E-06  8.44832779809690852E-06
  8.66219721980038601E-06  8.88148071966433350E-06  9.10631535306246070E-06
  9.33684164480501756E-06  9.57320367696101508E-06  9.81554917890324689E-06
  1.00640296196324885E-05  1.03188003024384774E-05  1.05800204619568363E-05
  1.08478533636826131E-05  1.11224664060024286E-05  1.14040312248092165E-05
  1.16927238007647638E-05  1.19887245692769998E-05  1.22922185332609607E-05
  1.26033953787535386E-05  1.29224495934545602E-05  1.32495805882680220E-05
  1.35849928219194243E-05  1.39288959287272314E-05  1.42815048496079322E-05
  1.46430399663968457E-05  1.50137272395684516E-05  1.53937983494420459E-05
  1.57834908409613760E-05  1.61830482721381762E-05  1.65927203662526885E-05
  1.70127631679060803E-05  1.74434392030220472E-05  1.78850176428979719E-05
  1.83377744724074471E-05  1.88019926624598317E-05  1.92779623468241795E-05
  1.97659810034279100E-05  2.02663536402437287E-05  2.07793929858805440E-05
  2.13054196849975736E-05  2.18447624986637026E-05  2.23977585097867854E-05
  2.29647533337419068E-05  2.35461013343291635E-05  2.41421658451966221E-05
  2.47533193968662770E-05  2.53799439495045826E-05  2.60224311315834495E-05
  2.66811824845798500E-05  2.73566097138676547E-05  2.80491349459577034E-05
  2.87591909922467172E-05  2.94872216194401735E-05  3.02336818268171300E-05
  3.09990381305107109E-05  3.17837688549815430E-05  3.25883644318654091E-05
  3.34133277063828092E-05  3.42591742515002378E-05  3.51264326900403343E-05
  3.60156450249414723E-05  3.69273669778723463E-05  3.78621683364139519E-05
  3.88206333100242799E-05  3.98033608950087948E-05  4.08109652487238697E-05
  4.18440760732465464E-05  4.29033390087503176E-05  4.39894160368317977E-05
  4.51029858940401831E-05  4.62447444958675088E-05  4.74154053714633314E-05
  4.86157001093460474E-05  4.98463788143876851E-05  5.11082105763579044E-05
  5.24019839503189701E-05  5.37285074491709110E-05  5.50886100486547045E-05
  5.64831417051271732E-05  5.79129738864313690E-05  5.93790001161928781E-05
  6.08821365318806270E-05  6.24233224569814403E-05  6.40035209876430044E-05
  6.56237195941524452E-05  6.72849307376244921E-05  6.89881925022825309E-05
  7.07345692437286693E-05  7.25251522536038092E-05  7.43610604410541544E-05
  7.62434410314268278E-05  7.81734702826302873E-05  8.01523542196058507E-05
  8.21813293873668469E-05  8.42616636230750427E-05  8.63946568476337522E-05
  8.85816418772916860E-05  9.08239852557614515E-05  9.31230881073709095E-05
  9.54803870117782567E-05  9.78973549007948566E-05  1.00375501977873548E-04
  1.02916376660834659E-04  1.05521566548415354E-04  1.08192699411244019E-04
  1.10931444207854960E-04  1.13739512126375680E-04  1.16618657652533912E-04
  1.19570679664647746E-04  1.22597422556279767E-04  1.25700777387252166E-04
  1.28882683063738225E-04  1.32145127548162641E-04  1.35490149099662350E-04
  1.38919837545877395E-04  1.42436335586861810E-04  1.46041840131924390E-04
  1.49738603670226581E-04  1.53528935675990814E-04  1.57415204049188322E-04
  1.61399836592601730E-04  1.65485322526177253E-04  1.69674214039605296E-04
  1.73969127884092585E-04  1.78372747004310696E-04  1.82887822211533300E-04
  1.87517173898998311E-04  1.92263693800555932E-04  1.97130346793692753E-04
  2.02120172748047308E-04  2.07236288420560078E-04  2.12481889398432575E-04
  2.17860252091093989E-04  2.23374735772410100E-04  2.29028784674394352E-04
  2.34825930133715955E-04  2.40769792792332106E-04  2.46864084853600451E-04
  2.53112612395267633E-04  2.59519277740760397E-04  2.66088081890241215E-04
  2.72823127012929471E-04  2.79728619002225592E-04  2.86808870095208660E-04
  2.94068301558127946E-04  3.01511446439536130E-04  3.09142952392765064E-04
  3.16967584569475701E-04  3.24990228586066136E-04  3.33215893564761179E-04
  3.41649715251250556E-04  3.50296959210795315E-04  3.59163024104762040E-04
  3.68253445049597299E-04  3.77573897060304320E-04  3.87130198580531862E-04
  3.96928315101442611E-04  4.06974362871574311E-04  4.17274612699968916E-04
  4.27835493854895345E-04  4.38663598060552522E-04  4.49765683594195438E-04
  4.61148679486188165E-04  4.72819689825548220E-04  4.84785998173611367E-04
  4.97055072088506975E-04  5.09634567763206045E-04  5.22532334779961596E-04
  5.35756420984041760E-04  5.49315077479715442E-04  5.63216763751532351E-04
  5.77470152914005635E-04  5.92084137092885646E-04  6.07067832941288296E-04
  6.22430587294022105E-04  6.38181982963538508E-04  6.54331844681013144E-04
  6.70890245186149862E-04  6.87867511469387343E-04  7.05274231170274855E-04
  7.23121259135879385E-04  7.41419724143169254E-04  7.60181035789428677E-04
  7.79416891554838209E-04  7.99139284041472018E-04  8.19360508393049652E-04
  8.40093169899894807E-04  8.61350191793651908E-04  8.83144823236426606E-04
  9.05490647509117294E-04  9.28401590403833818E-04  9.51891928825394267E-04
  9.75976299607030843E-04  1.00066970854553869E-03  1.02598753966123553E-03
  1.05194556468822184E-03  1.07855995280056348E-03  1.10584728058014687E-03
  1.13382454223208418E-03  1.16250916005371002E-03  1.19191899516330781E-03
  1.22207235849489354E-03  1.25298802206549138E-03  1.28468523052150708E-03
  1.31718371297096111E-03  1.35050369510846522E-03  1.38466591164003016E-03
  1.41969161901491750E-03  1.45560260847192721E-03  1.49242121940768523E-03
  1.53017035307465108E-03  1.56887348661675268E-03  1.60855468745073056E-03
  1.64923862800144439E-03  1.69095060079959680E-03  1.73371653395049921E-03
  1.77756300698270588E-03  1.82251726708553019E-03  1.86860724574467048E-03
  1.91586157578534002E-03  1.96430960883254733E-03  2.01398143319833547E-03
  2.06490789220603382E-03  2.11712060296177611E-03  2.17065197558374964E-03
  2.22553523289988802E-03  2.28180443062492300E-03  2.33949447802793160E-03
  2.39864115910178987E-03  2.45928115424612695E-03  2.52145206247565397E-03
  2.58519242416594590E-03  2.65054174434905393E-03  2.71754051657150698E-03
  2.78623024732756923E-03  2.85665348108084466E-03  2.92885382588758958E-03
  3.00287597963533933E-03  3.07876575691074178E-03  3.15657011651072775E-03
  3.23633718961144692E-03  3.31811630860962426E-03  3.40195803665132614E-03
  3.48791419786333330E-03  3.57603790830262388E-03  3.66638360763977275E-03
  3.75900709159228885E-03  3.85396554512424869E-03  3.95131757642883281E-03
  4.05112325171065775E-03  4.15344413078507380E-03  4.25834330351190695E-03
  4.36588542708133895E-03  4.47613676416994902E-03  4.58916522198523583E-03
  4.70504039221711096E-03  4.82383359191526119E-03  4.94561790531144151E-03
  5.07046822660607230E-03  5.19846130373874914E-03  5.32967578316257806E-03
  5.46419225564243570E-03  5.60209330309752781E-03  5.74346354650888402E-03
  5.88838969491258142E-03  6.03696059549979798E-03  6.18926728484493673E-03
  6.34540304128329655E-03  6.50546343845993889E-03  6.66954640007157585E-03
  6.83775225582348815E-03  7.01018379862357842E-03  7.18694634303587362E-03
  7.36814778501578265E-03  7.55389866294961087E-03  7.74431222002086844E-03
  7.93950446792592197E-03  8.13959425196164772E-03  8.34470331750761067E-03
  8.55495637792539135E-03  8.77048118389754661E-03  8.99140859422858929E-03
  9.21787264813030312E-03  9.45001063901344633E-03  9.68796318980777796E-03
  9.93187432983206817E-03  1.01818915732353708E-02  1.04381659990306526E-02
  1.07008523327413105E-02  1.09701090296807913E-02  1.12460983598848940E-02
  1.15289864947158913E-02  1.18189435951568510E-02  1.21161439018139180E-02
  1.24207658266434207E-02  1.27329920464200139E-02  1.30530095979608223E-02
  1.33810099751197984E-02  1.37171892275651987E-02  1.40617480613519225E-02
  1.44148919412991350E-02  1.47768311951819754E-02  1.51477811197450966E-02
  1.55279620885434462E-02  1.59175996616142193E-02  1.63169246969820311E-02
  1.67261734639969524E-02  1.71455877585032293E-02  1.75754150198335519E-02
  1.80159084496218092E-02  1.84673271324237859E-02  1.89299361581328138E-02
  1.94040067461741968E-02  1.98898163714583895E-02  2.03876488920701170E-02
  2.08977946786659610E-02  2.14205507455495180E-02  2.19562208833886524E-02
  2.25051157935347648E-02  2.30675532238991399E-02  2.36438581063364468E-02
  2.42343626954797838E-02  2.48394067089659429E-02  2.54593374689834270E-02
  2.60945100450693489E-02  2.67452873980743543E-02  2.74120405252073693E-02
  2.80951486060647786E-02  2.87949991495397503E-02  2.95119881414996864E-02
  3.02465201931099159E-02  3.09990086896738161E-02  3.17698759398476124E-02
  3.25595533250787328E-02  3.33684814491051127E-02  3.41971102873411537E-02
  3.50458993359643659E-02  3.59153177605027601E-02  3.68058445437106779E-02
  3.77179686325054553E-02  3.86521890837231291E-02  3.96090152084354608E-02
  4.05889667145538369E-02  4.15925738474289888E-02  4.26203775281368477E-02
  4.36729294891221378E-02  4.47507924068518553E-02  4.58545400311091700E-02
  4.69847573105381250E-02  4.81420405140251251E-02  4.93269973474808679E-02
  5.05402470655614139E-02  5.17824205778406668E-02  5.30541605489207799E-02
  5.43561214919379559E-02  5.56889698548926615E-02  5.70533840992024019E-02
  5.84500547698434056E-02  5.98796845564150346E-02  6.13429883444293333E-02
  6.28406932560870712E-02  6.43735386797680692E-02  6.59422762874250501E-02
  6.75476700390311297E-02  6.91904961731887730E-02  7.08715431829665954E-02
  7.25916117759862201E-02  7.43515148177358032E-02  7.61520772570404153E-02
  7.79941360325703131E-02  7.98785399592198825E-02  8.18061495931369648E-02
  8.37778370741312228E-02  8.57944859441351487E-02  8.78569909403356109E-02
  8.99662577615385622E-02  9.21232028062690805E-02  9.43287528810513032E-02
  9.65838448772515790E-02  9.88894254148058732E-02  1.01246450451090944E-01
  1.03655884853133873E-01  1.06118701931290943E-01  1.08635882932461444E-01
  1.11208416490834128E-01  1.13837298034101753E-01  1.16523529143018098E-01
  1.19268116862092238E-01  1.22072072959156383E-01  1.24936413131480462E-01
  1.27862156156040713E-01  1.30850322981485856E-01  1.33901935759285606E-01
  1.37018016811482679E-01  1.40199587532418235E-01  1.43447667221741515E-01
  1.46763271845967547E-01  1.50147412725798124E-01  1.53601095146381039E-01
  1.57125316887643751E-01  1.60721066671808938E-01  1.64389322525174797E-01
  1.68131050051225306E-01  1.71947200612129786E-01  1.75838709415690408E-01
  1.79806493504809650E-01  1.83851449646571685E-01  1.87974452118069707E-01
  1.92176350386158462E-01  1.96457966678378060E-01  2.00820093442376141E-01
  2.05263490691253436E-01  2.09788883232391143E-01  2.14396957777438751E-01
  2.19088359931315924E-01  2.23863691058266534E-01  2.28723505023229440E-01
  2.33668304807021832E-01  2.38698538994120552E-01  2.43814598132123445E-01
  2.49016810962326973E-01  2.54305440521236714E-01  2.59680680113246354E-01
  2.65142649155195198E-01  2.70691388894018781E-01  2.76326857999269537E-01
  2.82048928032900492E-01  2.87857378799357022E-01  2.93751893579758727E-01
  2.99732054254720603E-01  3.05797336321208202E-01  3.11947103809733506E-01
  3.18180604109159715E-01  3.24496962707437997E-01  3.30895177857707057E-01
  3.37374115180371192E-01  3.43932502213053826E-01  3.50568922921678572E-01
  3.57281812187245640E-01  3.64069450284484730E-01  3.70929957370129904E-01
  3.77861288000191198E-01  3.84861225697336939E-01  3.91927377591331449E-01
  3.99057169157350344E-01  4.06247839078961115E-01  4.13496434264591095E-01
  4.20799805048381714E-01  4.28154600608489588E-01  4.35557264638070707E-01
  4.43004031306417578E-01  4.50490921549976775E-01  4.58013739735221248E-01
  4.65568070737622630E-01  4.73149277483196129E-01  4.80752499001272149E-01
  4.88372649039285123E-01  4.96004415292371270E-01  5.03642259302490958E-01
  5.11280417083513794E-01  5.18912900530259180E-01  5.26533499670793326E-01
  5.34135785822414499E-01  5.41713115712465498E-01  5.49258636624571084E-01
  5.56765292632168229E-01  5.64225831979840553E-01  5.71632815671730077E-01
  5.78978627324529205E-01  5.86255484339955113E-01  5.93455450448214461E-01
  6.00570449669673878E-01  6.07592281736650586E-01  6.14512639010867834E-01
  6.21323124924546777E-01  6.28015273964234066E-01  6.34580573206210419E-01
  6.41010485400520080E-01  6.47296473587282484E-01  6.53430027213784181E-01
  6.59402689703888822E-01  6.65206087412371971E-01  6.70831959875823780E-01
  6.76272191248670662E-01  6.81518842787563361E-01  6.86564186219791206E-01
  6.91400737801505016E-01  6.96021292839305916E-01  7.00418960414748937E-01
  7.04587198012597393E-01  7.08519845715625984E-01  7.12211159589123177E-01
  7.15655843833018501E-01  7.18849081235221621E-01  7.21786561413419014E-01
  7.24464506285115606E-01  7.26879692157582635E-01  7.29029467781136642E-01
  7.30911767661411527E-01  7.32525119879783748E-01  7.33868647626658377E-01
  7.34942063610954932E-01  7.35745656471916143E-01  7.36280268287582196E-01
  7.36547262249310442E-01  7.36548479555158675E-01  7.36286184568499480E-01
  7.35762997293770593E-01  7.34981812240855126E-01  7.33945702785429588E-01
  7.32657810187041347E-01  7.31121216502220284E-01  7.29338800729162351E-01
  7.27313077645323491E-01  7.25046018953810711E-01  7.22538856548258890E-01
  7.19791867916974470E-01  7.16804143970860230E-01  7.13573339878775692E-01
  7.10095409834869296E-01  7.06364327073325415E-01  7.02371790966840659E-01
  6.98107977983883909E-01  6.93572354174752159E-01  6.88771106642052433E-01
  6.83710747377410333E-01  6.78398002419553281E-01  6.72839799954766060E-01
  6.67043258430327080E-01  6.61015674673426146E-01  6.54764512036032365E-01
  6.48297388584978540E-01  6.41622065353220417E-01  6.34746434664042347E-01
  6.27678508538692670E-01  6.20426407190372564E-01  6.12998347605746230E-01
  6.05402632214596781E-01  5.97647637639223239E-01  5.89741803515312357E-01
  5.81693621375708014E-01  5.73511623581448804E-01  5.65204372283237388E-01
  5.56780448397245831E-01  5.48248440577735030E-01  5.39616934169256823E-01
  5.30894500122428337E-01  5.22089683859453979E-01  5.13210994079197125E-01
  5.04266891494699721E-01  4.95265777503318294E-01  4.86215982794365176E-01
  4.77125755907031213E-01  4.68003251759162631E-01  4.58856520175762284E-01
  4.49693494454757259E-01  4.40521980016033099E-01  4.31349643187917742E-01
  4.22184000192761755E-01  4.13032406399639673E-01  4.03902045917372776E-01
  3.94799921604564563E-01  3.85732845575166072E-01  3.76707430277898381E-01
  3.67730080225078415E-01  3.58806984444595856E-01  3.49944109721308017E-01
  3.41147194684625010E-01  3.32421744792410823E-01  3.23773028250095962E-01
  3.15206072892356581E-01  3.06725664042592716E-01  2.98336343352947064E-01
  2.90042408615044656E-01  2.81847914519328280E-01  2.73756674328988037E-01
  2.65772262423388250E-01  2.57898017655622314E-01  2.50137047459646822E-01
  2.42492232634418381E-01  2.34966232725688118E-01  2.27561491920704018E-01
  2.20280245366961197E-01  2.13124525823528893E-01  2.06096170552252045E-01
  1.99196828356323519E-01  1.92427966675392220E-01  1.85790878649449043E-01
  1.79286690068250654E-01  1.72916366129004045E-01  1.66680717932135403E-01
  1.60580408652937212E-01  1.54615959337274483E-01  1.48787754279586654E-01
  1.43096045952710499E-01  1.37540959470891178E-01  1.32122496579381160E-01
  1.26840539176118317E-01  1.21694852382648905E-01  1.16685087192561279E-01
  1.11810782735796921E-01  1.07071368206058351E-01  1.02466164505957275E-01
  9.79943856702077953E-02  9.36551401311063320E-02  8.94474318925256306E-02
  8.53701616788070661E-02  8.14221281232864191E-02  7.76020290578459809E-02
  7.39084629601045734E-02  7.03399306087942600E-02  6.68948369908491103E-02
  6.35714934959643596E-02  6.03681204261844670E-02  5.72828498399408081E-02
  5.43137287414979658E-02  5.14587226172859569E-02  4.87157193158774607E-02
  4.60825332597239665E-02  4.35569099706549154E-02  4.11365308858923431E-02
  3.88190184367683683E-02  3.66019413586588863E-02  3.44828201977932583E-02
  3.24591329785841459E-02  3.05283209938759306E-02  2.86877946799614404E-02
  2.69349395383186099E-02  2.52671220666735481E-02  2.36816956631522545E-02
  2.21760064688439722E-02  2.07473991159951264E-02  1.93932223512362813E-02
  1.81108345056110107E-02  1.68976087857162505E-02  1.57509383628778796E-02
  1.46682412399615648E-02  1.36469648781061131E-02  1.26845905683153747E-02
  1.17786375356099642E-02  1.09266667661114952E-02  1.01262845478870787E-02
  9.37514572187308354E-03  8.67095663981006133E-03  8.01147782796800614E-03
  7.39452635760051279E-03  6.81797792483208095E-03  6.27976864429309178E-03
  5.77789656228568527E-03  5.31042289658296800E-03  4.87547301113940533E-03
  4.47123713502933871E-03  4.09597083582886792E-03  3.74799525842842672E-03
  3.42569714090659120E-03  3.12752861962204256E-03  2.85200683609225731E-03
  2.59771335853222667E-03  2.36329343113046882E-03  2.14745506425011341E-03
  1.94896797876572647E-03  1.76666241768674154E-03  1.59942783808697054E-03
  1.44621149615653381E-03  1.30601693797364115E-03  1.17790240840710369E-03
  1.06097918929809920E-03  9.54409878949168252E-04  8.57406624014072955E-04
  7.69229314140521068E-04  6.89183749370771387E-04  6.16619789771933181E-04
  5.50929496215447337E-04  4.91545270659420248E-04  4.37938003713585883E-04
  3.89615236686781722E-04  3.46119344736930067E-04  3.07025747165440733E-04
  2.71941150326254310E-04  2.40501828056925688E-04  2.12371943987911673E-04
  1.87241919549799253E-04  1.64826850978074246E-04  1.44864978113966612E-04
  1.27116207319209333E-04  1.11360690364121600E-04  9.73974607134348800E-05
                              </PP_CHI.3>
 <PP_CHI.4 type="real" size="   999" l="1" occupation=" 0.0000" columns="3" label= "0P">
  8.93261700952341144E-09  9.15874728466567122E-09  9.39060207492343581E-09
  9.62832629708401137E-09  9.87206853652052960E-09  1.01219811400625873E-08
  1.03782203112179979E-08  1.06409462078050051E-08  1.09103230420561323E-08
  1.11865191832562763E-08  1.14697072629788059E-08  1.17600642829859533E-08
  1.20577717258607211E-08  1.23630156684393452E-08  1.26759868981153993E-08
  1.29968810320880207E-08  1.33258986396291234E-08  1.36632453674455792E-08
  1.40091320682151059E-08  1.43637749323762063E-08  1.47273956232539583E-08
  1.51002214156069136E-08  1.54824853376812302E-08  1.58744263168607887E-08
  1.62762893290046523E-08  1.66883255515648543E-08  1.71107925205804639E-08
  1.75439542916459574E-08  1.79880816049545686E-08  1.84434520545196763E-08
  1.89103502616799476E-08  1.93890680529971054E-08  1.98799046426567970E-08
  2.03831668194872882E-08  2.08991691387124564E-08  2.14282341185587419E-08
  2.19706924418397482E-08  2.25268831626435835E-08  2.30971539182526462E-08
  2.36818611464284106E-08  2.42813703081961735E-08  2.48960561162703744E-08
  2.55263027692619588E-08  2.61725041918149449E-08  2.68350642808223708E-08
  2.75143971578744492E-08  2.82109274280983695E-08  2.89250904455499858E-08
  2.96573325853242499E-08  3.04081115225542615E-08  3.11778965184726551E-08
  3.19671687137153926E-08  3.27764214290499285E-08  3.36061604737168090E-08
  3.44569044615768118E-08  3.53291851352612497E-08  3.62235476985282575E-08
  3.71405511570329343E-08  3.80807686677236303E-08  3.90447878970838973E-08
  4.00332113884426620E-08  4.10466569385834377E-08  4.20857579838872622E-08
  4.31511639962506018E-08  4.42435408890267443E-08  4.53635714332424772E-08
  4.65119556843524103E-08  4.76894114197959936E-08  4.88966745876314891E-08
  5.01344997665275290E-08  5.14036606373987108E-08  5.27049504669813457E-08
  5.40391826036503153E-08  5.54071909857880568E-08  5.68098306630233204E-08
  5.82479783306642648E-08  5.97225328776611238E-08  6.12344159484408840E-08
  6.27845725189641020E-08  6.43739714873662062E-08  6.60036062795493806E-08
  6.76744954701052544E-08  6.93876834189570679E-08  7.11442409241178444E-08
  7.29452658909741752E-08  7.47918840185115230E-08  7.66852495029119999E-08
  7.86265457589642157E-08  8.06169861597351560E-08  8.26578147949678023E-08
  8.47503072486763165E-08  8.68957713964268140E-08  8.90955482228015553E-08
  9.13510126595565765E-08  9.36635744449989504E-08  9.60346790051169786E-08
  9.84658083570177646E-08  1.00958482035235748E-07  1.03514258041489784E-07
  1.06134733818483677E-07  1.08821547248357476E-07  1.11576377676417559E-07
  1.14400946960780521E-07  1.17297020548588023E-07  1.20266408579468657E-07
  1.23310967016931260E-07  1.26432598808401074E-07  1.29633255074622364E-07
  1.32914936329170505E-07  1.36279693728836803E-07  1.39729630355664875E-07
  1.43266902531443953E-07  1.46893721165477824E-07  1.50612353136472634E-07
  1.54425122709408120E-07  1.58334412988274691E-07  1.62342667405589971E-07
  1.66452391249619977E-07  1.70666153230261169E-07  1.74986587084568287E-07
  1.79416393222919292E-07  1.83958340416855911E-07  1.88615267529653872E-07
  1.93390085290703326E-07  1.98285778114799641E-07  2.03305405967497569E-07
  2.08452106277687000E-07  2.13729095898581991E-07  2.19139673118352467E-07
  2.24687219721658260E-07  2.30375203103369087E-07  2.36207178435790301E-07
  2.42186790890756923E-07  2.48317777917983099E-07  2.54603971581073623E-07
  2.61049300952687840E-07  2.67657794570330571E-07  2.74433582954306308E-07
  2.81380901189425507E-07  2.88504091572059146E-07  2.95807606324207364E-07
  3.03296010376275859E-07  3.10973984220285831E-07  3.18846326835335938E-07
  3.26917958687101344E-07  3.35193924803276780E-07  3.43679397926869668E-07
  3.52379681749316041E-07  3.61300214225450969E-07  3.70446570972396454E-07
  3.79824468754474935E-07  3.89439769056377171E-07  3.99298481746745071E-07
  4.09406768834526546E-07  4.19770948320415786E-07  4.30397498145781483E-07
  4.41293060241581829E-07  4.52464444679755895E-07  4.63918633929719197E-07
  4.75662787222614933E-07  4.87704245026043033E-07  5.00050533632056523E-07
  5.12709369861318347E-07  5.25688665886335454E-07  5.38996534176788239E-07
  5.52641292570065435E-07  5.66631469470142164E-07  5.80975809178075915E-07
  5.95683277357445654E-07  6.10763066638138319E-07  6.26224602362006129E-07
  6.42077548473968233E-07  6.58331813562233159E-07  6.74997557051465856E-07
  6.92085195552682525E-07  7.09605409373935805E-07  7.27569149195791592E-07
  7.45987642915803970E-07  7.64872402666256129E-07  7.84235232009549187E-07
  8.04088233315754128E-07  8.24443815326912695E-07  8.45314700912805207E-07
  8.66713935023130290E-07  8.88654892840884776E-07  9.11151288142250782E-07
  9.34217181868019090E-07  9.57866990912065464E-07  9.82115497132264916E-07
  1.00697785658952454E-06  1.03246960902072376E-06  1.05860668755139931E-06
  1.08540542865439925E-06  1.11288258236052146E-06  1.14105532272772444E-06
  1.16994125857531554E-06  1.19955844448991491E-06  1.22992539210995236E-06
  1.26106108169591109E-06  1.29298497399341397E-06  1.32571702239667250E-06
  1.35927768541975914E-06  1.39368793948368088E-06  1.42896929202709573E-06
  1.46514379494894562E-06  1.50223405839137420E-06  1.54026326487151817E-06
  1.57925518377113161E-06  1.61923418619289356E-06  1.66022526019288544E-06
  1.70225402639862247E-06  1.74534675402245699E-06  1.78953037728035197E-06
  1.83483251222630918E-06  1.88128147401288699E-06  1.92890629458876628E-06
  1.97773674084419201E-06  2.02780333321583374E-06  2.07913736476261991E-06
  2.13177092072440167E-06  2.18573689857582984E-06  2.24106902858773616E-06
  2.29780189490916253E-06  2.35597095718296840E-06  2.41561257270866173E-06
  2.47676401916623591E-06  2.53946351791527384E-06  2.60375025788377367E-06
  2.66966442006183905E-06  2.73724720261526921E-06  2.80654084663492349E-06
  2.87758866253793108E-06  2.95043505713715725E-06  3.02512556139596792E-06
  3.10170685888557124E-06  3.18022681496272126E-06  3.26073450668588831E-06
  3.34328025348899093E-06  3.42791564863134940E-06  3.51469359144390682E-06
  3.60366832039163222E-06  3.69489544697288868E-06  3.78843199047698523E-06
  3.88433641362137074E-06  3.98266865909124231E-06  4.08349018700375409E-06
  4.18686401332085724E-06  4.29285474923433598E-06  4.40152864154791527E-06
  4.51295361408145356E-06  4.62719931012341161E-06  4.74433713595761158E-06
  4.86444030549226289E-06  4.98758388601816600E-06  5.11384484512563024E-06
  5.24330209880873778E-06  5.37603656078749196E-06  5.51213119307815668E-06
  5.65167105784400731E-06  5.79474337055834142E-06  5.94143755451330710E-06
  6.09184529670845396E-06  6.24606060515402822E-06  6.40417986762460755E-06
  6.56630191190028419E-06  6.73252806753224308E-06  6.90296222917214326E-06
  7.07771092150434812E-06  7.25688336582190872E-06  7.44059154828734217E-06
  7.62895028992180618E-06  7.82207731836527123E-06  8.02009334145359119E-06
  8.22312212265761402E-06  8.43129055843181815E-06  8.64472875752105192E-06
  8.86357012227440222E-06  9.08795143201717535E-06  9.31801292853346714E-06
  9.55389840371238218E-06  9.79575528941207158E-06  1.00437347495993315E-05
  1.02979917748206279E-05  1.05586852790644540E-05  1.08259781990756320E-05
  1.11000375961829354E-05  1.13810347607041790E-05  1.16691453189942761E-05
  1.19645493432019491E-05  1.22674314638052183E-05  1.25779809849944490E-05
  1.28963920029764929E-05  1.32228635272726129E-05  1.35575996050866063E-05
  1.39008094488203823E-05  1.42527075668175812E-05  1.46135138974156719E-05
  1.49834539463906857E-05  1.53627589278811983E-05  1.57516659088785408E-05
  1.61504179573735951E-05  1.65592642942540627E-05  1.69784604490446244E-05
  1.74082684195896829E-05  1.78489568357769748E-05  1.83008011274048298E-05
  1.87640836962978327E-05  1.92390940927777722E-05  1.97261291966016936E-05
  2.02254934024779969E-05  2.07374988102779587E-05  2.12624654200607751E-05
  2.18007213320339476E-05  2.23526029515741116E-05  2.29184551994362802E-05
  2.34986317272819944E-05  2.40934951386627785E-05  2.47034172155942605E-05
  2.53287791508649803E-05  2.59699717862236839E-05  2.66273958565924983E-05
  2.73014622404621967E-05  2.79925922166215392E-05  2.87012177273834029E-05
  2.94277816484723759E-05  3.01727380657403215E-05  3.09365525588841631E-05
  3.17197024923428398E-05  3.25226773135538466E-05  3.33459788587576472E-05
  3.41901216665382296E-05  3.50556332992970867E-05  3.59430546728617219E-05
  3.68529403944318798E-05  3.77858591090776246E-05  3.87423938550033353E-05
  3.97231424277988426E-05  4.07287177539073346E-05  4.17597482735410612E-05
  4.28168783332836189E-05  4.39007685886248696E-05  4.50120964166794249E-05
  4.61515563393454341E-05  4.73198604571676472E-05  4.85177388941760316E-05
  4.97459402539768834E-05  5.10052320873804186E-05  5.22964013718580270E-05
  5.36202550031261843E-05  5.49776202991646932E-05  5.63693455169833531E-05
  5.77963003824581381E-05  5.92593766335702276E-05  6.07594885773830515E-05
  6.22975736611033919E-05  6.38745930575906044E-05  6.54915322656674680E-05
  6.71494017256166160E-05  6.88492374502387835E-05  7.05921016718707561E-05
  7.23790835057659611E-05  7.42112996302444827E-05  7.60898949840479278E-05
  7.80160434813213739E-05  7.99909487446754850E-05  8.20158448567817632E-05
  8.40919971309726311E-05  8.62207029013196529E-05  8.84032923326897127E-05
  9.06411292512753608E-05  9.29356119961232161E-05  9.52881742921873176E-05
  9.77002861454483358E-05  1.00173454760662454E-04  1.02709225482301350E-04
  1.05309182759278080E-04  1.07974951134052344E-04  1.10708196256735877E-04
  1.13510625924818231E-04  1.16383991149177665E-04  1.19330087247017022E-04
  1.22350754962424952E-04  1.25447881615243205E-04  1.28623402278964634E-04
  1.31879300988388648E-04  1.35217611977783909E-04  1.38640420950330543E-04
  1.42149866379625591E-04  1.45748140844066811E-04  1.49437492394937120E-04
  1.53220225959039999E-04  1.57098704776758240E-04  1.61075351876429279E-04
  1.65152651585947423E-04  1.69333151082534070E-04  1.73619461981638077E-04
  1.78014261965943967E-04  1.82520296455514414E-04  1.87140380320077678E-04
  1.91877399634543901E-04  1.96734313478826858E-04  2.01714155783084024E-04
  2.06820037219525017E-04  2.12055147141954140E-04  2.17422755574249156E-04
  2.22926215249005089E-04  2.28568963697610276E-04  2.34354525393037276E-04
  2.40286513946682260E-04  2.46368634360606426E-04  2.52604685336575545E-04
  2.58998561643312888E-04  2.65554256543444297E-04  2.72275864281623691E-04
  2.79167582635365876E-04  2.86233715530189456E-04  2.93478675720637604E-04
  3.00906987538893198E-04  3.08523289712602379E-04  3.16332338253716872E-04
  3.24339009420098801E-04  3.32548302751703049E-04  3.40965344183229429E-04
  3.49595389235149770E-04  3.58443826285062409E-04  3.67516179921403266E-04
  3.76818114381562012E-04  3.86355437076519410E-04  3.96134102204158411E-04
  4.06160214453495625E-04  4.16440032802057095E-04  4.26979974408797647E-04
  4.37786618604847101E-04  4.48866710984645583E-04  4.60227167599871166E-04
  4.71875079258787702E-04  4.83817715933611270E-04  4.96062531278609019E-04
  5.08617167261660522E-04  5.21489458912148822E-04  5.34687439188042649E-04
  5.48219343965151355E-04  5.62093617151579461E-04  5.76318915930537179E-04
  5.90904116134624113E-04  6.05858317754925154E-04  6.21190850588217462E-04
  6.36911280025739671E-04  6.53029412987030382E-04  6.69555304002421498E-04
  6.86499261447900033E-04  7.03871853936068460E-04  7.21683916867096875E-04
  7.39946559143651091E-04  7.58671170053751612E-04  7.77869426325854870E-04
  7.97553299360274307E-04  8.17735062641394882E-04  8.38427299335059548E-04
  8.59642910075758657E-04  8.81395120948246847E-04  9.03697491668413520E-04
  9.26563923968223369E-04  9.50008670189905215E-04  9.74046342094306446E-04
  9.98691919888853794E-04  1.02396076148042578E-03  1.04986861195861423E-03
  1.07643161331507872E-03  1.10366631440473239E-03  1.13158968115465016E-03
  1.16021910702677968E-03  1.18957242374059455E-03  1.21966791226209314E-03
  1.25052431406554097E-03  1.28216084267460638E-03  1.31459719548974465E-03
  1.34785356590864003E-03  1.38195065574692535E-03  1.41690968796637663E-03
  1.45275241971798918E-03  1.48950115570764020E-03  1.52717876189197737E-03
  1.56580867951255291E-03  1.60541493947635987E-03  1.64602217709100204E-03
  1.68765564716305940E-03  1.73034123946831154E-03  1.77410549460270059E-03
  1.81897562022317275E-03  1.86497950768755097E-03  1.91214574910307045E-03
  1.96050365479322327E-03  2.01008327119272601E-03  2.06091539918093741E-03
  2.11303161286387035E-03  2.16646427881543027E-03  2.22124657578883769E-03
  2.27741251490891014E-03  2.33499696035689101E-03  2.39403565055888029E-03
  2.45456521989008544E-03  2.51662322090641334E-03  2.58024814711595683E-03
  2.64547945630278945E-03  2.71235759441564549E-03  2.78092402003484286E-03
  2.85122122943029998E-03  2.92329278222449706E-03  2.99718332767400127E-03
  3.07293863158377171E-03  3.15060560386841524E-03  3.23023232677516073E-03
  3.31186808378353603E-03  3.39556338919656591E-03  3.48137001843958635E-03
  3.56934103908160142E-03  3.65953084259623218E-03  3.75199517687769754E-03
  3.84679117952906914E-03  3.94397741193939274E-03  4.04361389416720875E-03
  4.14576214064756553E-03  4.25048519674087102E-03  4.35784767614131284E-03
  4.46791579916333732E-03  4.58075743192511847E-03  4.69644212644771287E-03
  4.81504116168931812E-03  4.93662758553451396E-03  5.06127625775764593E-03
  5.18906389398146074E-03  5.32006911065059131E-03  5.45437247104110182E-03
  5.59205653232689240E-03  5.73320589372434790E-03  5.87790724573660720E-03
  6.02624942051925572E-03  6.17832344338953027E-03  6.33422258550104741E-03
  6.49404241770703931E-03  6.65788086563394617E-03  6.82583826598904490E-03
  6.99801742412462999E-03  7.17452367288230579E-03  7.35546493274034235E-03
  7.54095177328819016E-03  7.73109747605118906E-03  7.92601809868956689E-03
  8.12583254059539954E-03  8.33066260991116234E-03  8.54063309199402237E-03
  8.75587181934955709E-03  8.97650974305866378E-03  9.20268100572129225E-03
  9.43452301594065179E-03  9.67217652437161839E-03  9.91578570135611889E-03
  1.01654982161685156E-02  1.04214653178944152E-02  1.06838419179642700E-02
  1.09527866743644176E-02  1.12284620775472601E-02  1.15110345380605820E-02
  1.18006744759178352E-02  1.20975564117283708E-02  1.24018590596067201E-02
  1.27137654218791377E-02  1.30334628856060199E-02  1.33611433209341653E-02
  1.36970031812968848E-02  1.40412436054745370E-02  1.43940705215283345E-02
  1.47556947526205177E-02  1.51263321247286104E-02  1.55062035762637569E-02
  1.58955352695996574E-02  1.62945587045153148E-02  1.67035108335564786E-02
  1.71226341793133049E-02  1.75521769536153213E-02  1.79923931786362817E-02
  1.84435428099030720E-02  1.89058918611977322E-02  1.93797125313397468E-02
  1.98652833328298445E-02  2.03628892223368628E-02  2.08728217330019124E-02
  2.13953791085302741E-02  2.19308664390403633E-02  2.24795957986291400E-02
  2.30418863846130473E-02  2.36180646583947704E-02  2.42084644879024327E-02
  2.48134272915412277E-02  2.54333021835898808E-02  2.60684461209706765E-02
  2.67192240513078570E-02  2.73860090621922576E-02  2.80691825315488482E-02
  2.87691342790061116E-02  2.94862627181512876E-02  3.02209750095450390E-02
  3.09736872143649283E-02  3.17448244485263320E-02  3.25348210371287361E-02
  3.33441206690536576E-02  3.41731765515325275E-02  3.50224515644898260E-02
  3.58924184144468680E-02  3.67835597877637366E-02  3.76963685029734902E-02
  3.86313476619504839E-02  3.95890107996357613E-02  4.05698820320209361E-02
  4.15744962020755324E-02  4.26033990232787263E-02  4.36571472203932734E-02
  4.47363086671038745E-02  4.58414625201011908E-02  4.69731993491883590E-02
  4.81321212629354581E-02  4.93188420294032315E-02  5.05339871914026878E-02
  5.17781941757441272E-02  5.30521123958859475E-02  5.43564033473589447E-02
  5.56917406953068087E-02  5.70588103534428806E-02  5.84583105536832792E-02
  5.98909519056695372E-02  6.13574574453556246E-02  6.28585626717757945E-02
  6.43950155710722727E-02  6.59675766267991126E-02  6.75770188154628665E-02
  6.92241275862191807E-02  7.09097008235558962E-02  7.26345487917560706E-02
  7.43994940598495247E-02  7.62053714057049220E-02  7.80530276978265297E-02
  7.99433217533568746E-02  8.18771241706965913E-02  8.38553171350825410E-02
  8.58787941953486622E-02  8.79484600100348679E-02  9.00652300608913298E-02
  9.22300303317327153E-02  9.44437969504914598E-02  9.67074757922050804E-02
  9.90220220405628043E-02  1.01388399705514484E-01  1.03807581094312262E-01
  1.06280546233241999E-01  1.08808282237144893E-01  1.11391782623698588E-01
  1.14032046569281897E-01  1.16730078103074814E-01  1.19486885235911347E-01
  1.22303479020203928E-01  1.25180872537114463E-01  1.28120079806936071E-01
  1.31122114618481694E-01  1.34187989273068548E-01  1.37318713238488127E-01
  1.40515291708132706E-01  1.43778724060233426E-01  1.47110002211933655E-01
  1.50510108862691699E-01  1.53980015621238225E-01  1.57520681010104385E-01
  1.61133048341424778E-01  1.64818043457456903E-01  1.68576572329003971E-01
  1.72409518504594766E-01  1.76317740403009959E-01  1.80302068441411945E-01
  1.84363301991014777E-01  1.88502206151914153E-01  1.92719508338324297E-01
  1.97015894665177604E-01  2.01392006126603157E-01  2.05848434556505394E-01
  2.10385718361025348E-01  2.15004338012326685E-01  2.19704711292710547E-01
  2.24487188277678523E-01  2.29352046046126273E-01  2.34299483105482681E-01
  2.39329613519074030E-01  2.44442460722661070E-01  2.49637951016588366E-01
  2.54915906719531349E-01  2.60276038969417700E-01  2.65717940156571186E-01
  2.71241075973705670E-01  2.76844777066903747E-01  2.82528230271333003E-01
  2.88290469414817452E-01  2.94130365672040761E-01  3.00046617451661002E-01
  3.06037739798158126E-01  3.12102053289765868E-01  3.18237672413423045E-01
  3.24442493397238296E-01  3.30714181480539771E-01  3.37050157601167466E-01
  3.43447584479318668E-01  3.49903352076861462E-01  3.56414062410723764E-01
  3.62976013698628031E-01  3.69585183815231366E-01  3.76237213036397566E-01
  3.82927386049262741E-01  3.89650613205485830E-01  3.96401410995062486E-01
  4.03173881718009386E-01  4.09961692331266614E-01  4.16758052448208072E-01
  4.23555691468399276E-01  4.30346834815386048E-01  4.37123179260700823E-01
  4.43875867312662320E-01  4.50595460649071244E-01  4.57271912573626815E-01
  4.63894539476346179E-01  4.70451991279508652E-01  4.76932220851370658E-01
  4.83322452371201861E-01  4.89609148630301749E-01  4.95777977255331459E-01
  5.01813775841650767E-01  5.07700515986274858E-01  5.13421266212000238E-01
  5.18958153776282627E-01  5.24292325361001010E-01  5.29403906641479294E-01
  5.34271960736150686E-01  5.38874445541099201E-01  5.43188169956842049E-01
  5.47188749018200804E-01  5.50850557941760743E-01  5.54146685109183634E-01
  5.57048884008807588E-01  5.59527524162385936E-01  5.61551541068086024E-01
  5.63088385196096386E-01  5.64103970077839301E-01  5.64562619535295185E-01
  5.64427014101950508E-01  5.63658136692645750E-01  5.62215217585937066E-01
  5.60055678787847233E-01  5.57135077852302207E-01  5.53407051239577119E-01
  5.48823257300467660E-01  5.43333318980070423E-01  5.36884766341529263E-01
  5.29422979016244244E-01  5.20891128693273253E-01  5.11230121766771517E-01
  5.00378542266241677E-01  4.88272595199782000E-01  4.74846050446256218E-01
  4.60030187337017504E-01  4.43753740072571345E-01  4.25942844123649855E-01
  4.06520983769691036E-01  3.85408940930963728E-01  3.62524745452465880E-01
  3.37783626999980990E-01  3.11097968729032393E-01  2.82377262888065639E-01
  2.51528068516883474E-01  2.18453971400152380E-01  1.83055546429120419E-01
  1.45230322529557837E-01  1.04872750306603577E-01  6.18741725534830006E-02
  1.61227977673805631E-02 -3.24963231878142092E-02 -8.41013171362684914E-02
 -1.38813505229193224E-01 -1.96757416036585198E-01 -2.58060794959950213E-01
 -3.22854609831438155E-01 -3.91273052558437195E-01 -4.63453536662360499E-01
 -5.39536690543614861E-01 -6.19666346282379155E-01 -7.03989523752292623E-01
 -7.92656409783281890E-01 -8.85820332054704451E-01 -9.83637727331986955E-01
 -1.08626810357374559E+00 -1.19387399533068495E+00 -1.30662091172840733E+00
 -1.42467727617070228E+00 -1.54821435671323271E+00 -1.67740618583305512E+00
 -1.81242946806854288E+00 -1.95346347369389228E+00 -2.10068991622922274E+00
 -2.25429281118717562E+00 -2.41445831298282076E+00 -2.58137452639436038E+00
 -2.75523128834942765E+00 -2.93621991511847069E+00 -3.12453290921713878E+00
 -3.32036361944610059E+00 -3.52390584652523797E+00 -3.73535338570199249E+00
 -3.95489949652783057E+00 -4.18273628869742353E+00 -4.41905401143044863E+00
 -4.66404023234490239E+00 -4.91787889012460511E+00 -5.18074920352778445E+00
 -5.45282441742291368E+00 -5.73427036458632777E+00 -6.02524381996754865E+00
 -6.32589062204349339E+00 -6.63634353377072816E+00 -6.95671981353707114E+00
 -7.28711846444387401E+00 -7.62761712828558469E+00 -7.97826858888069967E+00
 -8.33909684770549475E+00 -8.71009273359285530E+00 -9.09120900742253824E+00
 -9.48235492241462197E+00 -9.88339020110276856E+00 -1.02941183932017797E+01
 -1.07142953732240169E+01 -1.11437908926351366E+01 -1.15825560914692218E+01
 -1.20305293566537141E+01 -1.24876341549458640E+01 -1.29537783153131194E+01
 -1.34288532948751289E+01 -1.39127334284183561E+01 -1.44052751622631696E+01
 -1.49063162734025205E+01 -1.54156750749086768E+01 -1.59331496086586242E+01
 -1.64585168265363926E+01 -1.69915317612063603E+01 -1.75319266876123230E+01
 -1.80794102764186633E+01 -1.86336667404426031E+01 -1.91943549751738054E+01
 -1.97611076943119315E+01 -2.03335305611831991E+01 -2.09112013167562374E+01
 -2.14936689048040748E+01 -2.20804525945943020E+01 -2.26710411013139215E+01
 -2.32648917042641408E+01 -2.38614293627158531E+01 -2.44600458292164582E+01
 -2.50600987600503444E+01 -2.56609108226424638E+01 -2.62617687997709623E+01
 -2.68619226907321149E+01 -2.74605848099921417E+01 -2.80569288844317164E+01
 -2.86500891510362656E+01 -2.92391594578422129E+01 -2.98231923721081991E+01
 -3.04011983010536575E+01 -3.09721446320936202E+01 -3.15349549012770218E+01
 -3.20885080006034187E+01 -3.26316374370114488E+01 -3.31631306580846754E+01
 -3.36817284618927744E+01 -3.41861245106907532E+01 -3.46749649706342709E+01
 -3.51468483021270615E+01 -3.56003252275965067E+01 -3.60338989056678543E+01
 -3.64460253426824821E+01 -3.68351140742533829E+01 -3.71995291510312782E+01
 -3.75375904640239710E+01 -3.78475754456271218E+01 -3.81277211829486902E+01
 -3.83762269800001903E+01 -3.85912574048545665E+01 -3.87709458568962120E+01
 -3.89133986877866960E+01 -3.90166999077160455E+01 -3.90789165058859638E+01
 -3.90981044109725673E+01 -3.90723151135394318E+01 -3.89996029680367755E+01
 -3.88780331871551539E+01 -3.87056905359475394E+01 -3.84806887273551723E+01
 -3.82011805146481507E+01 -3.78653684700290967E+01 -3.74715164319233835E+01
 -3.70179615966651880E+01 -3.65031272246598846E+01 -3.59255359242792736E+01
 -3.52838234709433678E+01 -3.45767531134018782E+01 -3.38032303142671395E+01
 -3.29623178674523558E+01 -3.20532513313346286E+01 -3.10754547131822605E+01
 -3.00285563375866751E+01 -2.89124048292188469E+01 -2.77270851380690964E+01
 -2.64729345332338006E+01 -2.51505584891333953E+01 -2.37608463855503906E+01
 -2.23049869398904512E+01 -2.07844832863921525E+01 -1.92011676124576987E+01
 -1.75572152567178961E+01 -1.58551581667394128E+01 -1.40978976063712018E+01
 -1.22887159935468997E+01 -1.04312877389250218E+01 -8.52968894412408929E+00
 -6.58840580542189524E+00 -4.61234155502576293E+00 -2.60682175773315628E+00
 -5.77597765172975119E-01  1.46915188577699385E+00  3.52682235957385126E+00
  5.58838593841472786E+00  7.64639822839735483E+00  9.69300742963167217E+00
  1.17199669574620806E+01  1.37186517131969818E+01  1.56800783117847669E+01
  1.75949295801833685E+01  1.94535836432084004E+01  2.12461479127867818E+01
  2.29624982911703341E+01  2.45923238880945760E+01  2.61251775353568725E+01
  2.75505323591316476E+01  2.88578446396965980E+01  3.00366231493676210E+01
  3.10765051114735940E+01  3.19673388653443915E+01  3.26992732537501638E+01
  3.32628536696636772E+01  3.36491246077787167E+01  3.38497384552990965E+01
  3.38570701465644746E+01  3.36643371707600565E+01  3.32657242752456881E+01
  3.26565120479853306E+01  3.18332083893202515E+01  3.07936816971824143E+01
  2.95372943917998008E+01  2.80650351974476280E+01  2.63796483817837846E+01
  2.44857579302931008E+01  2.23899844074496492E+01  2.01010520312225438E+01
  1.76298832680138915E+01  1.49896780463845065E+01  1.21959744961429468E+01
  9.26668795157135960E+00  6.22212482163112224E+00  3.08496783469790570E+00
 -1.19770879696772858E-01 -3.36483239417547653E+00 -6.62083270686388303E+00
 -9.85642684967381832E+00 -1.30385183817387098E+01 -1.61325168991095111E+01
 -1.91026456935040514E+01 -2.19123010782056937E+01 -2.45244641430219481E+01
 -2.69021647909599295E+01 -2.90089968502238662E+01 -3.08096818389828684E+01
 -3.22706775883530170E+01 -3.33608264063263391E+01 -3.40520358024508241E+01
 -3.43199830067537093E+01 -3.41448326306142818E+01 -3.35119548640752924E+01
 -3.24126296242617684E+01 -3.08447201135649962E+01 -2.88132973744638292E+01
 -2.63311957110542778E+01 -2.34194773665115648E+01 -2.01077836916092529E+01
 -1.64345493116406161E+01 -1.24470556045163807E+01 -8.20130025335971524E+00
                              </PP_CHI.4>
                             </PP_PSWFC> 
<PP_FULL_WFC number_of_wfc=" 4">
 <PP_AEWFC.1 type="real" size="   999" l="0" columns="3" label= "3S">
  6.40723283697647457E-04  6.48719394535813816E-04  6.56815195615480891E-04
  6.65011927279802388E-04  6.73310845140938233E-04  6.81713220585280751E-04
  6.90220340857927456E-04  6.98833508837677880E-04  7.07554043625304211E-04
  7.16383280885744150E-04  7.25322572696150410E-04  7.34373287702782683E-04
  7.43536811721075383E-04  7.52814547808453851E-04  7.62207916096200731E-04
  7.71718354435101941E-04  7.81347318663805682E-04  7.91096282375338528E-04
  8.00966737423736185E-04  8.10960194355092459E-04  8.21078182207648100E-04
  8.31322248880246931E-04  8.41693961663760471E-04  8.52194907071629308E-04
  8.62826691157469387E-04  8.73590940080389120E-04  8.84489299933198308E-04
  8.95523437106764369E-04  9.06695038825243373E-04  9.18005812948732912E-04
  9.29457488470987686E-04  9.41051815938019121E-04  9.52790567263973117E-04
  9.64675536398498443E-04  9.76708539509941239E-04  9.88891414982176649E-04
  1.00122602413435817E-03  1.01371425113469310E-03  1.02635800337855698E-03
  1.03915921198358390E-03  1.05211983165767655E-03  1.06524184142037085E-03
  1.07852724463258233E-03  1.09197806930609966E-03  1.10559636863430161E-03
  1.11938422090518386E-03  1.13334373023658212E-03  1.14747702654213876E-03
  1.16178626603620255E-03  1.17627363154696515E-03  1.19094133267344765E-03
  1.20579160640831668E-03  1.22082671709384171E-03  1.23604895715218651E-03
  1.25146064705371142E-03  1.26706413596987711E-03  1.28286180188467579E-03
  1.29885605209901578E-03  1.31504932350591085E-03  1.33144408296207687E-03
  1.34804282769090717E-03  1.36484808556730400E-03  1.38186241560011832E-03
  1.39908840817732087E-03  1.41652868558475586E-03  1.43418590225103662E-03
  1.45206274526726788E-03  1.47016193466465318E-03  1.48848622390430809E-03
  1.50703840021782550E-03  1.52582128503825831E-03  1.54483773443119150E-03
  1.56409063944350701E-03  1.58358292664161722E-03  1.60331755837388808E-03
  1.62329753340169727E-03  1.64352588711603694E-03  1.66400569219011998E-03
  1.68474005885072670E-03  1.70573213543970042E-03  1.72698510884229835E-03
  1.74850220488994190E-03  1.77028668895570979E-03  1.79234186626284751E-03
  1.81467108250756839E-03  1.83727772426415322E-03  1.86016521945922488E-03
  1.88333703795897137E-03  1.90679669194046574E-03  1.93054773649324867E-03
  1.95459377011690614E-03  1.97893843516593754E-03  2.00358541847336230E-03
  2.02853845181950833E-03  2.05380131244615885E-03  2.07937782367038438E-03
  2.10527185536943037E-03  2.13148732452965103E-03  2.15802819586102769E-03
  2.18489848231547814E-03  2.21210224564522343E-03  2.23964359703008285E-03
  2.26752669763810935E-03  2.29575575918243612E-03  2.32433504456215504E-03
  2.35326886846527489E-03  2.38256159794379956E-03  2.41221765304387541E-03
  2.44224150744901331E-03  2.47263768910060315E-03  2.50341078081055528E-03
  2.53456542092595936E-03  2.56610630398692273E-03  2.59803818137879219E-03
  2.63036586198009533E-03  2.66309421284632256E-03  2.69622815989648597E-03
  2.72977268859754714E-03  2.76373284465188411E-03  2.79811373469259026E-03
  2.83292052700314431E-03  2.86815845223423269E-03  2.90383280412651566E-03
  2.93994894024042020E-03  2.97651228269017092E-03  3.01352831889558368E-03
  3.05100260233929837E-03  3.08894075332901688E-03  3.12734845976785861E-03
  3.16623147793288233E-03  3.20559563326087591E-03  3.24544682114241440E-03
  3.28579100772764506E-03  3.32663423073808204E-03  3.36798260028634174E-03
  3.40984229970434961E-03  3.45221958638001905E-03  3.49512079260251010E-03
  3.53855232641607205E-03  3.58252067248253500E-03  3.62703239295248617E-03
  3.67209412834506145E-03  3.71771259843695643E-03  3.76389460316011283E-03
  3.81064702350817795E-03  3.85797682245194937E-03  3.90589104586381609E-03
  3.95439682345129998E-03  4.00350136969969666E-03  4.05321198482389532E-03
  4.10353605572943720E-03  4.15448105698279762E-03  4.20605455179102767E-03
  4.25826419299074263E-03  4.31111772404650564E-03  4.36462298005870549E-03
  4.41878788878087743E-03  4.47362047164660478E-03  4.52912884480599284E-03
  4.58532122017175307E-03  4.64220590647496621E-03  4.69979131033029102E-03
  4.75808593731109029E-03  4.81709839303446231E-03  4.87683738425594756E-03
  4.93731171997409228E-03  4.99853031254484693E-03  5.06050217880587867E-03
  5.12323644121077601E-03  5.18674232897320744E-03  5.25102917922102511E-03
  5.31610643815938391E-03  5.38198366224395836E-03  5.44867051936605111E-03
  5.51617679004674354E-03  5.58451236864100035E-03  5.65368726455175823E-03
  5.72371160345378893E-03  5.79459562852484809E-03  5.86634970169041484E-03
  5.93898430487959251E-03  6.01251004128933349E-03  6.08693763665857715E-03
  6.16227794054906904E-03  6.23854192763719992E-03  6.31574069902208265E-03
  6.39388548353982730E-03  6.47298763908647073E-03  6.55305865394453270E-03
  6.63411014812943442E-03  6.71615387474610182E-03  6.79920172135099320E-03
  6.88326571131570551E-03  6.96835800521159766E-03  7.05449090220670091E-03
  7.14167684146389294E-03  7.22992840354011543E-03  7.31925831181453723E-03
  7.40967943392053727E-03  7.50120478317212961E-03  7.59384752000985888E-03
  7.68762095346701285E-03  7.78253854262517600E-03  7.87861389807857637E-03
  7.97586078343032363E-03  8.07429311677449260E-03  8.17392497218252974E-03
  8.27477058122669078E-03  8.37684433448330698E-03  8.48016078304557330E-03
  8.58473464007126520E-03  8.69058078230092526E-03  8.79771425160372038E-03
  8.90615025654095498E-03  9.01590417389877205E-03  9.12699155027183254E-03
  9.23942810362553442E-03  9.35322972486159546E-03  9.46841247942164198E-03
  9.58499260884664028E-03  9.70298653239206298E-03  9.82241084861254499E-03
  9.94328233696230648E-03  1.00656179594152805E-02  1.01894348620512783E-02
  1.03147503766994383E-02  1.04415820225247057E-02  1.05699475076764214E-02
  1.06998647308879438E-02  1.08313517831190431E-02  1.09644269491721083E-02
  1.10991087093256363E-02  1.12354157409638479E-02  1.13733669202025715E-02
  1.15129813235267473E-02  1.16542782294108398E-02  1.17972771199581564E-02
  1.19419976825178003E-02  1.20884598113200313E-02  1.22366836090912149E-02
  1.23866893886792218E-02  1.25384976746680584E-02  1.26921292049869301E-02
  1.28476049325258277E-02  1.30049460267226778E-02  1.31641738751791422E-02
  1.33253100852231306E-02  1.34883764855190796E-02  1.36533951276097045E-02
  1.38203882875069274E-02  1.39893784672240583E-02  1.41603883963287783E-02
  1.43334410334757471E-02  1.45085595679103740E-02  1.46857674209975239E-02
  1.48650882476843577E-02  1.50465459379987149E-02  1.52301646184965708E-02
  1.54159686536994561E-02  1.56039826475357062E-02  1.57942314447192707E-02
  1.59867401321536935E-02  1.61815340402872050E-02  1.63786387444409196E-02
  1.65780800661444495E-02  1.67798840744058271E-02  1.69840770869805861E-02
  1.71906856716172417E-02  1.73997366472422241E-02  1.76112570851500103E-02
  1.78252743101476249E-02  1.80418159016466524E-02  1.82609096947544090E-02
  1.84825837813092156E-02  1.87068665108648738E-02  1.89337864916660735E-02
  1.91633725915638757E-02  1.93956539388755733E-02  1.96306599232280027E-02
  1.98684201963400600E-02  2.01089646727410434E-02  2.03523235304634113E-02
  2.05985272116764352E-02  2.08476064232481217E-02  2.10995921372651406E-02
  2.13545155914997356E-02  2.16124082898001869E-02  2.18733020024157697E-02
  2.21372287662748753E-02  2.24042208851838974E-02  2.26743109299444370E-02
  2.29475317384104441E-02  2.32239164154730074E-02  2.35034983329571560E-02
  2.37863111294305193E-02  2.40723887099444957E-02  2.43617652456840257E-02
  2.46544751735209601E-02  2.49505531954701994E-02  2.52500342780647702E-02
  2.55529536516257670E-02  2.58593468094258441E-02  2.61692495067418103E-02
  2.64826977598112412E-02  2.67997278446724940E-02  2.71203762958852901E-02
  2.74446799051260293E-02  2.77726757196672912E-02  2.81044010407321236E-02
  2.84398934217125234E-02  2.87791906662502005E-02  2.91223308261752446E-02
  2.94693521993109574E-02  2.98202933271262405E-02  3.01751929922341421E-02
  3.05340902157306901E-02  3.08970242543720325E-02  3.12640345975922843E-02
  3.16351609643461193E-02  3.20104432997744687E-02  3.23899217716873827E-02
  3.27736367668585993E-02  3.31616288871353776E-02  3.35539389453484438E-02
  3.39506079610181824E-02  3.43516771558521339E-02  3.47571879490262761E-02
  3.51671819522482582E-02  3.55817009645979024E-02  3.60007869671327418E-02
  3.64244821172546446E-02  3.68528287428318210E-02  3.72858693360671317E-02
  3.77236465471097737E-02  3.81662031774051697E-02  3.86135821727700834E-02
  3.90658266161888895E-02  3.95229797203232106E-02  3.99850848197274150E-02
  4.04521853627611283E-02  4.09243249031961964E-02  4.14015470915062647E-02
  4.18838956658304715E-02  4.23714144426037137E-02  4.28641473068457832E-02
  4.33621382021000812E-02  4.38654311200126004E-02  4.43740700895448870E-02
  4.48880991658116776E-02  4.54075624185319160E-02  4.59325039200843416E-02
  4.64629677331587637E-02  4.69989978979933887E-02  4.75406384191876807E-02
  4.80879332520810360E-02  4.86409262886869434E-02  4.91996613431746957E-02
  4.97641821368847367E-02  5.03345322828677721E-02  5.09107552699375882E-02
  5.14928944462253110E-02  5.20809930022248305E-02  5.26750939533178683E-02
  5.32752401217657032E-02  5.38814741181571424E-02  5.44938383223010497E-02
  5.51123748635504798E-02  5.57371256005461044E-02  5.63681321003655714E-02
  5.70054356170673973E-02  5.76490770696155147E-02  5.82990970191716376E-02
  5.89555356457428306E-02  5.96184327241691056E-02  6.02878275994394239E-02
  6.09637591613199220E-02  6.16462658182831760E-02  6.23353854707225860E-02
  6.30311554834373788E-02  6.37336126573743306E-02  6.44427932006108178E-02
  6.51587326985651055E-02  6.58814660834185079E-02  6.66110276027339077E-02
  6.73474507872559164E-02  6.80907684178767431E-02  6.88410124917523819E-02
  6.95982141875531590E-02  7.03624038298327342E-02  7.11336108524996125E-02
  7.19118637613751222E-02  7.26971900958219147E-02  7.34896163894256660E-02
  7.42891681297142420E-02  7.50958697168973288E-02  7.59097444216101924E-02
  7.67308143416447624E-02  7.75591003576513033E-02  7.83946220877933669E-02
  7.92373978413400543E-02  8.00874445711776822E-02  8.09447778252244954E-02
  8.18094116967315460E-02  8.26813587734521183E-02  8.35606300856637924E-02
  8.44472350530251631E-02  8.53411814302515032E-02  8.62424752515911913E-02
  8.71511207740879590E-02  8.80671204196105950E-02  8.89904747156352177E-02
  8.99211822347626977E-02  9.08592395329553132E-02  9.18046410864770540E-02
  9.27573792275210862E-02  9.37174440785096541E-02  9.46848234850503762E-02
  9.56595029475342251E-02  9.66414655513605642E-02  9.76306918957746267E-02
  9.86271600213037281E-02  9.96308453357780260E-02  1.00641720538923063E-01
  1.01659755545511252E-01  1.02684917407059914E-01  1.03717170232064074E-01
  1.04756475104752861E-01  1.05802790002359051E-01  1.06856069710891399E-01
  1.07916265739400954E-01  1.08983326232732256E-01  1.10057195882752076E-01
  1.11137815838048132E-01  1.12225123612092345E-01  1.13319052989862265E-01
  1.14419533932917761E-01  1.15526492482928109E-01  1.16639850663648459E-01
  1.17759526381344029E-01  1.18885433323661374E-01  1.20017480856949355E-01
  1.21155573922030857E-01  1.22299612928430126E-01  1.23449493647060107E-01
  1.24605107101377469E-01  1.25766339457012294E-01  1.26933071909883788E-01
  1.28105180572812033E-01  1.29282536360640105E-01  1.30465004873881296E-01
  1.31652446280908247E-01  1.32844715198703500E-01  1.34041660572191912E-01
  1.35243125552178156E-01  1.36448947371916179E-01  1.37658957222335288E-01
  1.38872980125956808E-01  1.40090834809530496E-01  1.41312333575428550E-01
  1.42537282171833812E-01  1.43765479661762813E-01  1.44996718290968579E-01
  1.46230783354767413E-01  1.47467453063842679E-01  1.48706498409075211E-01
  1.49947683025458300E-01  1.51190763055156913E-01  1.52435487009773663E-01
  1.53681595631888684E-01  1.54928821755943885E-01  1.56176890168545968E-01
  1.57425517468266857E-01  1.58674411925023934E-01  1.59923273339126704E-01
  1.61171792900081767E-01  1.62419653045250495E-01  1.63666527318460875E-01
  1.64912080228678509E-01  1.66155967108845282E-01  1.67397833975002797E-01
  1.68637317385818192E-01  1.69874044302640109E-01  1.71107631950213834E-01
  1.72337687678191992E-01  1.73563808823584437E-01  1.74785582574292719E-01
  1.76002585833884784E-01  1.77214385087768517E-01  1.78420536270931046E-01
  1.79620584637415232E-01  1.80814064631713539E-01  1.82000499762262957E-01
  1.83179402477235409E-01  1.84350274042821061E-01  1.85512604424210859E-01
  1.86665872169493291E-01  1.87809544296682979E-01  1.88943076184112019E-01
  1.90065911464417509E-01  1.91177481922369080E-01  1.92277207396787303E-01
  1.93364495686811161E-01  1.94438742462782477E-01  1.95499331182018704E-01
  1.96545633009762133E-01  1.97577006745590644E-01  1.98592798755594130E-01
  1.99592342910620946E-01  2.00574960530912921E-01  2.01539960337452195E-01
  2.02486638410353137E-01  2.03414278154642525E-01  2.04322150273776287E-01
  2.05209512751254902E-01  2.06075610840701917E-01  2.06919677064785590E-01
  2.07740931223365927E-01  2.08538580411262775E-01  2.09311819046047426E-01
  2.10059828906267926E-01  2.10781779180528067E-01  2.11476826527848494E-01
  2.12144115149746126E-01  2.12782776874475832E-01  2.13391931253887696E-01
  2.13970685673360334E-01  2.14518135475278093E-01  2.15033364096528734E-01
  2.15515443220503977E-01  2.15963432944094202E-01  2.16376381960172809E-01
  2.16753327756076170E-01  2.17093296828586912E-01  2.17395304915937171E-01
  2.17658357247353301E-01  2.17881448810667649E-01  2.18063564638528606E-01
  2.18203680113744358E-01  2.18300761294298235E-01  2.18353765258578525E-01
  2.18361640471366164E-01  2.18323327171127679E-01  2.18237757779159242E-01
  2.18103857331132162E-01  2.17920543931585359E-01  2.17686729231909265E-01
  2.17401318932375243E-01  2.17063213308749031E-01  2.16671307764023213E-01
  2.16224493405805768E-01  2.15721657649893067E-01  2.15161684850549789E-01
  2.14543456958008832E-01  2.13865854203698136E-01  2.13127755813688563E-01
  2.12328040750846575E-01  2.11465588486162370E-01  2.10539279799710516E-01
  2.09547997611684522E-01  2.08490627843927689E-01  2.07366060312367428E-01
  2.06173189650736333E-01  2.04910916265944154E-01  2.03578147325439412E-01
  2.02173797776875080E-01  2.00696791400365254E-01  1.99146061893588994E-01
  1.97520553989971620E-01  1.95819224610133569E-01  1.94041044046768113E-01
  1.92184997183070444E-01  1.90250084744800263E-01  1.88235324586021574E-01
  1.86139753008517456E-01  1.83962426114837097E-01  1.81702421194877728E-01
  1.79358838145863897E-01  1.76930800925525350E-01  1.74417459038229278E-01
  1.71817989053761944E-01  1.69131596158396291E-01  1.66357515737805745E-01
  1.63495014991369286E-01  1.60543394577342596E-01  1.57501990288222982E-01
  1.54370174755643963E-01  1.51147359184049423E-01  1.47832995112309518E-01
  1.44426576202383999E-01  1.40927640054040015E-01  1.37335770044569233E-01
  1.33650597192352977E-01  1.29871802043045853E-01  1.25999116577058423E-01
  1.22032326136923178E-01  1.17971271373045722E-01  1.13815850206226574E-01
  1.09566019805258139E-01  1.05221798577775361E-01  1.00783268172443707E-01
  9.62505754904440375E-02  9.16239347040940094E-02  8.69036292803258004E-02
  8.20900140065942141E-02  7.71835170166704637E-02  7.21846418136091739E-02
  6.70939692870442944E-02  6.19121597218028688E-02  5.66399547946609752E-02
  5.12781795559109632E-02  4.58277443922224526E-02  4.02896469671317273E-02
  3.46649741352759028E-02  2.89549038263462039E-02  2.31607068948318333E-02
  1.72837489310735497E-02  1.13254920292731528E-02  5.28749650803779590E-03
 -8.28577420983812743E-04 -7.02096804080874597E-03 -1.32878105774655222E-02
 -1.96271357131222422E-02 -2.60368681678440454E-02 -3.25148253534717629E-02
 -3.90587161026601307E-02 -4.56661394755336833E-02 -5.23345836458176533E-02
 -5.90614248675633072E-02 -6.58439265228792509E-02 -7.26792382503360646E-02
 -7.95643951530353027E-02 -8.64963170847653784E-02 -9.34718080122674544E-02
 -1.00487555451475585E-01 -1.07540129975706375E-01 -1.14625984794266583E-01
 -1.21741455400775703E-01 -1.28882759291741700E-01 -1.36045995757562488E-01
 -1.43227145750082885E-01 -1.50422071833119647E-01 -1.57626518224867784E-01
 -1.64836110943786279E-01 -1.72046358071502037E-01 -1.79252650149610143E-01
 -1.86450260729004919E-01 -1.93634347091956649E-01 -2.00799951168340374E-01
 -2.07942000667737825E-01 -2.15055310448623360E-01 -2.22134584144329322E-01
 -2.29174416063029018E-01 -2.36169293375562778E-01 -2.43113598600790237E-01
 -2.50001612393491390E-01 -2.56827516634991648E-01 -2.63585397822101219E-01
 -2.70269250745884426E-01 -2.76872982448666705E-01 -2.83390416445644000E-01
 -2.89815297196623745E-01 -2.96141294813725142E-01 -3.02362009992083236E-01
 -3.08470979152557168E-01 -3.14461679787699067E-01 -3.20327536004660074E-01
 -3.26061924260870328E-01 -3.31658179290167165E-01 -3.37109600218379657E-01
 -3.42409456868244699E-01 -3.47550996253702171E-01 -3.52527449262857173E-01
 -3.57332037529503932E-01 -3.61957980491410813E-01 -3.66398502632607426E-01
 -3.70646840905786978E-01 -3.74696252329738244E-01 -3.78540021755596590E-01
 -3.82171469794613416E-01 -3.85583960899219980E-01 -3.88770911588329549E-01
 -3.91725798807149361E-01 -3.94442168411232752E-01 -3.96913643764058577E-01
 -3.99133934437132021E-01 -4.01096845001347513E-01 -4.02796283898224083E-01
 -4.04226272379507257E-01 -4.05380953503592156E-01 -4.06254601177183761E-01
 -4.06841629230608404E-01 -4.07136600515186242E-01 -4.07134236011069739E-01
 -4.06829423933953160E-01 -4.06217228829039101E-01 -4.05292900640624065E-01
 -4.04051883745614959E-01 -4.02489825939195967E-01 -4.00602587360881224E-01
 -3.98386249349122978E-01 -3.95837123212420372E-01 -3.92951758904805382E-01
 -3.89726953593426240E-01 -3.86159760105794447E-01 -3.82247495244070756E-01
 -3.77987747953547393E-01 -3.73378387332260531E-01 -3.68417570468387912E-01
 -3.63103750091814947E-01 -3.57435682025917967E-01 -3.51412432425282195E-01
 -3.45033384784689756E-01 -3.38298246704308081E-01 -3.31207056395600719E-01
 -3.23760188912001534E-01 -3.15958362087953581E-01 -3.07802642169409391E-01
 -2.99294449118399641E-01 -2.90435561573794299E-01 -2.81228121449873969E-01
 -2.71674638153899195E-01 -2.61777992403398052E-01 -2.51541439623470364E-01
 -2.40968612903651569E-01 -2.30063525495741522E-01 -2.18830572831465647E-01
 -2.07274534039393304E-01 -1.95400572941478085E-01 -1.83214238509626565E-01
 -1.70721464763426256E-01 -1.57928570090998643E-01 -1.44842255976209477E-01
 -1.31469605116944555E-01 -1.17818078921014147E-01 -1.03895514368498601E-01
 -8.97101202318239810E-02 -7.52704726478247571E-02 -6.05855100391996873E-02
 -4.56645273862272133E-02 -3.05171698532360723E-02 -1.51534257779774931E-02
  4.16380964342211819E-04  1.61815992073359449E-02  3.21312593321300896E-02
  4.82540826785801333E-02  6.45384915080945976E-02  8.09726194975348562E-02
  9.75443227458357015E-02  1.14241191279400370E-01  1.31050561049920272E-01
  1.47959526423773247E-01  1.64954953180432962E-01  1.82023492052508590E-01
  1.99151592859339865E-01  2.16325519311440700E-01  2.33531364592101220E-01
  2.50755067855523206E-01  2.67982431817177291E-01  2.85199141650500476E-01
  3.02390785441596310E-01  3.19542876486145988E-01  3.36640877732801380E-01
  3.53670228674295650E-01  3.70616374945906824E-01  3.87464800789887098E-01
  4.04201064358928441E-01  4.20810835533272920E-01  4.37279935490147320E-01
  4.53594376678561173E-01  4.69740401132719365E-01  4.85704514264952369E-01
  5.01473510538566813E-01  5.17034486928306003E-01  5.32374840083892020E-01
  5.47482243885089703E-01  5.62344605807162501E-01  5.76950003223065444E-01
  5.91286604214227851E-01  6.05342581075066444E-01  6.19106027687533644E-01
  6.32564893412490004E-01  6.45706945363608509E-01  6.58519767619743845E-01
  6.70990800500365414E-01  6.83107416605437168E-01  6.94857024494938691E-01
  7.06227187164950809E-01  7.17205741712287126E-01  7.27780908632403856E-01
  7.37941383085651936E-01  7.47676404863189870E-01  7.56975807545996249E-01
  7.65830049854494210E-01  7.74230233347958263E-01  7.82168110727994748E-01
  7.89636088438501083E-01  7.96627226409555300E-01  8.03135236926055263E-01
  8.09154483854652606E-01  8.14679982884738529E-01  8.19707403026494030E-01
  8.24233069332526047E-01  8.28253966636639638E-01  8.31767744001812082E-01
  8.34772719518069639E-01  8.37267885074330587E-01  8.39252910735070468E-01
  8.40728148375954887E-01  8.41694634267336816E-01  8.42154090336798000E-01
  8.42108923888545191E-01  8.41562225605671177E-01  8.40517765708794440E-01
  8.38979988189569093E-01  8.36954003078667519E-01  8.34445576744211936E-01
  8.31461120247833363E-01  8.28007675811521460E-01  8.24092901469338668E-01
  8.19725053994397213E-01  8.14912970203675924E-01  8.09666046751940094E-01
  8.03994218531706273E-01  7.97907935799511026E-01  7.91418140150082716E-01
  7.84536239459175389E-01  7.77274081914733461E-01  7.69643929259268611E-01
  7.61658429353818556E-01  7.53330588176023164E-01  7.44673741361066677E-01
  7.35701525389808930E-01  7.26427848524353492E-01  7.16866861587042270E-01
  7.07032928674475869E-01  6.96940597893746183E-01  6.86604572203449171E-01
  6.76039680437489188E-01  6.65260848584926290E-01  6.54283071394414439E-01
  6.43121384366989179E-01  6.31790836196091887E-01  6.20306461708962420E-01
  6.08683255358606679E-01  5.96936145310647537E-01  5.85079968148022878E-01
  5.73129444285953138E-01  5.61099154102339348E-01  5.49003514683147675E-01
  5.36856757423550768E-01  5.24672906364559655E-01  5.12465757311618031E-01
  5.00248857752376708E-01  4.88035487580126992E-01  4.75838640629107523E-01
  4.63671007029605620E-01  4.51544956388604091E-01  4.39472521801634597E-01
  4.27465384702100215E-01  4.15534860555587693E-01  4.03691885408534512E-01
  3.91947003302981323E-01  3.80310354572134246E-01  3.68791665034536864E-01
  3.57400236108011249E-01  3.46144935867896852E-01  3.35034191077114019E-01
  3.24075980218286097E-01  3.13277827560026034E-01  3.02646798290595320E-01
  2.92189494752157164E-01  2.81912053807558460E-01  2.71820145369099098E-01
  2.61918972114754844E-01  2.52213270412084967E-01  2.42707312463412511E-01
  2.33404909677801559E-01  2.24309417267919198E-01  2.15423740058990065E-01
  2.06750339486482526E-01  1.98291241750340991E-01  1.90048047082860577E-01
  1.82021940077365052E-01  1.74213701015552919E-01  1.66623718122904801E-01
  1.59252000674058231E-01  1.52098192863767745E-01  1.45161588353997534E-01
  1.38441145404033350E-01  1.31935502488131379E-01  1.25642994304249939E-01
  1.19561668077725919E-01  1.13689300065313220E-01  1.08023412167726637E-01
  1.02561288562548480E-01  9.72999922740588191E-02  9.22363816020276284E-02
  8.73671263376551571E-02  8.26887237015701687E-02  7.81975139459264168E-02
  7.38896955700871216E-02  6.97613401075814626E-02  6.58084064485184028E-02
  6.20267546679357101E-02  5.84121593423146679E-02  5.49603223401866764E-02
  5.16668850798897711E-02  4.85274402536706242E-02  4.55375430226190522E-02
  4.26927216915036142E-02  3.99884878762867477E-02  3.74203461799827858E-02
  3.49838033944945906E-02  3.26743772471621702E-02  3.04876047110469242E-02
  2.84190498974570931E-02  2.64643115480734555E-02  2.46190301422919908E-02
  2.28788946332525410E-02  2.12396488235794371E-02  1.96970973892588823E-02
  1.82471115574808010E-02  1.68856344417773821E-02  1.56086860355336508E-02
  1.44123678629966227E-02  1.32928672853543182E-02  1.22464614587077872E-02
  1.12695209397718921E-02  1.03585129326899811E-02  9.51000417541955981E-03
  8.72066346170346368E-03  7.98726379595664053E-03  7.30668418002137447E-03
  6.67591103236592123E-03  6.09203924212722674E-03  5.55227286234711778E-03
  5.05392544877629295E-03  4.59442005265816873E-03  4.17128887790000572E-03
  3.78217261495198158E-03  3.42481946550027110E-03  3.09708387371205153E-03
  2.79692498121778032E-03  2.52240482426208329E-03  2.27168629249099039E-03
  2.04303086965501287E-03  1.83479617710360270E-03  1.64543334131982762E-03
  1.47348420690873944E-03  1.31757841641613575E-03  1.17643037812669446E-03
  1.04883614267499816E-03  9.33670208792896110E-04  8.29882276780787519E-04
  7.36493969285824087E-04  6.52595537034732177E-04  5.77342566076000097E-04
  5.09952702146725459E-04  4.49702406631428248E-04  3.95923757391626748E-04
  3.48001306532566492E-04  3.05369005950090677E-04  2.67507210279470213E-04
  2.33939765661168674E-04  2.04231191555682073E-04  1.77983961691062850E-04
  1.54835889119922087E-04  1.34457619305180181E-04  1.16550234151103075E-04
  1.00842968953146825E-04  8.70910433605237864E-05  7.50736066319871608E-05
  6.45917967198270804E-05  5.54669120403575644E-05  4.75386941816153256E-05
  4.06637192596414907E-05  3.47138951692624036E-05  2.95750615850599486E-05
  2.51456890907056637E-05  2.13356737451054637E-05  1.80652230696772257E-05
  1.52638292342575025E-05  1.28693251248543308E-05  1.08270189001408635E-05
  9.08890260940873063E-06  7.61293044885739799E-06  6.36236227163798553E-06
  5.30516803600955467E-06  4.41348897151396613E-06  3.66315136145380382E-06
  3.03322897761791647E-06  2.50565035672000968E-06  2.06484727419018206E-06
  1.69744094680484174E-06  1.39196267837523952E-06  1.13860584981964195E-06
  9.29006344118126743E-07  7.56048685845840263E-07  6.13695362384943394E-07
                              </PP_AEWFC.1>
 <PP_AEWFC.2 type="real" size="   999" l="0" columns="3" label= "0S">
 -9.45112962108803014E-04 -9.56907797450804614E-04 -9.68849682873952080E-04
 -9.80940447967780299E-04 -9.93181944844519129E-04 -1.00557604888437961E-03
 -1.01812465886013900E-03 -1.03082969660518026E-03 -1.04369310788128230E-03
 -1.05671686288339220E-03 -1.06990295601543735E-03 -1.08325340612174122E-03
 -1.09677025737220791E-03 -1.11045557936970954E-03 -1.12431146690202747E-03
 -1.13834004089426850E-03 -1.15254344880471411E-03 -1.16692386428035979E-03
 -1.18148348790425399E-03 -1.19622454783134178E-03 -1.21114929949353123E-03
 -1.22626002614319922E-03 -1.24155903963710105E-03 -1.25704868018636316E-03
 -1.27273131682497298E-03 -1.28860934824368369E-03 -1.30468520253656660E-03
 -1.32096133773846268E-03 -1.33744024261450256E-03 -1.35412443636895915E-03
 -1.37101646937942321E-03 -1.38811892381427208E-03 -1.40543441336103280E-03
 -1.42296558421081644E-03 -1.44071511532852707E-03 -1.45868571844815832E-03
 -1.47688013913449328E-03 -1.49530115665588606E-03 -1.51395158454199806E-03
 -1.53283427131409560E-03 -1.55195210029031392E-03 -1.57130799064973507E-03
 -1.59090489747624087E-03 -1.61074581221502485E-03 -1.63083376345543336E-03
 -1.65117181680264125E-03 -1.67176307596216532E-03 -1.69261068268963008E-03
 -1.71371781753552389E-03 -1.73508770030708268E-03 -1.75672359029983372E-03
 -1.77862878721628823E-03 -1.80080663110094175E-03 -1.82326050341750532E-03
 -1.84599382700211521E-03 -1.86901006702640585E-03 -1.89231273116185214E-03
 -1.91590537032375655E-03 -1.93979157907715077E-03 -1.96397499618490524E-03
 -1.98845930520212717E-03 -2.01324823489628301E-03 -2.03834555995880892E-03
 -2.06375510136673187E-03 -2.08948072714784357E-03 -2.11552635274191332E-03
 -2.14189594176729262E-03 -2.16859350643037498E-03 -2.19562310824808092E-03
 -2.22298885855018403E-03 -2.25069491911501426E-03 -2.27874550280529218E-03
 -2.30714487408254865E-03 -2.33589734980103056E-03 -2.36500729959474975E-03
 -2.39447914680831521E-03 -2.42431736881639718E-03 -2.45452649798633647E-03
 -2.48511112207836296E-03 -2.51607588507379940E-03 -2.54742548780687288E-03
 -2.57916468855876263E-03 -2.61129830393595557E-03 -2.64383120932526082E-03
 -2.67676833981245806E-03 -2.71011469077980230E-03 -2.74387531860556142E-03
 -2.77805534153016155E-03 -2.81265994020386823E-03 -2.84769435857410661E-03
 -2.88316390461937052E-03 -2.91907395100538501E-03 -2.95542993600491667E-03
 -2.99223736418920963E-03 -3.02950180718632644E-03 -3.06722890458653455E-03
 -3.10542436465748983E-03 -3.14409396515388665E-03 -3.18324355422385094E-03
 -3.22287905117341414E-03 -3.26300644729007059E-03 -3.30363180676801526E-03
 -3.34476126753504091E-03 -3.38640104207384206E-03 -3.42855741836729311E-03
 -3.47123676078777083E-03 -3.51444551094532527E-03 -3.55819018861713290E-03
 -3.60247739269619867E-03 -3.64731380210655794E-03 -3.69270617670686878E-03
 -3.73866135827074326E-03 -3.78518627145699995E-03 -3.83228792477163099E-03
 -3.87997341152345994E-03 -3.92824991083264366E-03 -3.97712468864328938E-03
 -4.02660509873291501E-03 -4.07669858372639807E-03 -4.12741267612143706E-03
 -4.17875499935002181E-03 -4.23073326883564166E-03 -4.28335529305927387E-03
 -4.33662897463576048E-03 -4.39056231139639281E-03 -4.44516339749770860E-03
 -4.50044042453830780E-03 -4.55640168268305144E-03 -4.61305556179922652E-03
 -4.67041055260473438E-03 -4.72847524782703341E-03 -4.78725834337421705E-03
 -4.84676863952345632E-03 -4.90701504211822018E-03 -4.96800656377725715E-03
 -5.02975232511606880E-03 -5.09226155598082719E-03 -5.15554359669498363E-03
 -5.21960789931854869E-03 -5.28446402892003998E-03 -5.35012166486133721E-03
 -5.41659060209514435E-03 -5.48388075247611354E-03 -5.55200214608472971E-03
 -5.62096493256410579E-03 -5.69077938247007989E-03 -5.76145588863450492E-03
 -5.83300496754200412E-03 -5.90543726072012033E-03 -5.97876353614299697E-03
 -6.05299468964866534E-03 -6.12814174636994256E-03 -6.20421586217912747E-03
 -6.28122832514645211E-03 -6.35919055701238394E-03 -6.43811411467394741E-03
 -6.51801069168492491E-03 -6.59889211977020707E-03 -6.68077037035421945E-03
 -6.76365755610356442E-03 -6.84756593248382790E-03 -6.93250789933041751E-03
 -7.01849600243394881E-03 -7.10554293514023810E-03 -7.19366153996452411E-03
 -7.28286481022029364E-03 -7.37316589166251302E-03 -7.46457808414548174E-03
 -7.55711484329529663E-03 -7.65078978219696330E-03 -7.74561667309610954E-03
 -7.84160944911404395E-03 -7.93878220597767255E-03 -8.03714920376685446E-03
 -8.13672486867524775E-03 -8.23752379478562974E-03 -8.33956074585997902E-03
 -8.44285065714403017E-03 -8.54740863718244162E-03 -8.65324996965403416E-03
 -8.76039011522348338E-03 -8.86884471340519329E-03 -8.97862958444182839E-03
 -9.08976073119267293E-03 -9.20225434103814910E-03 -9.31612678780823107E-03
 -9.43139463372020571E-03 -9.54807463132881402E-03 -9.66618372548194021E-03
 -9.78573905530552221E-03 -9.90675795620335649E-03 -1.00292579618649815E-02
 -1.01532568062757574E-02 -1.02787724257579760E-02 -1.04058229610299903E-02
 -1.05344267592671764E-02 -1.06646023761644160E-02 -1.07963685780411607E-02
 -1.09297443439521687E-02 -1.10647488677899399E-02 -1.12014015604157326E-02
 -1.13397220518207022E-02 -1.14797301932710732E-02 -1.16214460594662467E-02
 -1.17648899507439737E-02 -1.19100823952644260E-02 -1.20570441512008481E-02
 -1.22057962089844440E-02 -1.23563597935196692E-02 -1.25087563664132897E-02
 -1.26630076282551740E-02 -1.28191355208551409E-02 -1.29771622295207067E-02
 -1.31371101853607637E-02 -1.32990020675437023E-02 -1.34628608056306370E-02
 -1.36287095818768602E-02 -1.37965718335383118E-02 -1.39664712552336878E-02
 -1.41384318012416164E-02 -1.43124776878798265E-02 -1.44886333958391296E-02
 -1.46669236725406032E-02 -1.48473735345217954E-02 -1.50300082697725386E-02
 -1.52148534401552130E-02 -1.54019348837409267E-02 -1.55912787172369938E-02
 -1.57829113383421739E-02 -1.59768594281647462E-02 -1.61731499536020007E-02
 -1.63718101697447604E-02 -1.65728676222763015E-02 -1.67763501498654211E-02
 -1.69822858865765203E-02 -1.71907032642541757E-02 -1.74016310149358415E-02
 -1.76150981732307622E-02 -1.78311340787260936E-02 -1.80497683783628834E-02
 -1.82710310288270901E-02 -1.84949522989242485E-02 -1.87215627719462020E-02
 -1.89508933480466782E-02 -1.91829752465751818E-02 -1.94178400084522619E-02
 -1.96555194984665699E-02 -1.98960459076416331E-02 -2.01394517555014765E-02
 -2.03857698924083328E-02 -2.06350335018135114E-02 -2.08872761025385087E-02
 -2.11425315510259185E-02 -2.14008340435471803E-02 -2.16622181184470616E-02
 -2.19267186582903020E-02 -2.21943708920604894E-02 -2.24652103972834555E-02
 -2.27392731021353323E-02 -2.30165952875557439E-02 -2.32972135892688843E-02
 -2.35811649998405627E-02 -2.38684868706634384E-02 -2.41592169139013165E-02
 -2.44533932044447046E-02 -2.47510541817681090E-02 -2.50522386517862128E-02
 -2.53569857886742113E-02 -2.56653351365986292E-02 -2.59773266114547464E-02
 -2.62930005025366793E-02 -2.66123974741287669E-02 -2.69355585670955286E-02
 -2.72625252003881914E-02 -2.75933391724755735E-02 -2.79280426627611517E-02
 -2.82666782329104790E-02 -2.86092888280961855E-02 -2.89559177782174361E-02
 -2.93066087990290595E-02 -2.96614059931750058E-02 -3.00203538511831548E-02
 -3.03834972523720458E-02 -3.07508814656507964E-02 -3.11225521502559339E-02
 -3.14985553564092469E-02 -3.18789375258614754E-02 -3.22637454923381667E-02
 -3.26530264819158422E-02 -3.30468281132793931E-02 -3.34451983978582418E-02
 -3.38481857398721386E-02 -3.42558389362695448E-02 -3.46682071765337871E-02
 -3.50853400423588660E-02 -3.55072875072236158E-02 -3.59340999358295637E-02
 -3.63658280833949951E-02 -3.68025230948041196E-02 -3.72442365036344952E-02
 -3.76910202310281328E-02 -3.81429265844034082E-02 -3.86000082560016208E-02
 -3.90623183212896533E-02 -3.95299102371894293E-02 -4.00028378401278140E-02
 -4.04811553439008848E-02 -4.09649173373640499E-02 -4.14541787819359825E-02
 -4.19489950088988081E-02 -4.24494217164935531E-02 -4.29555149668031516E-02
 -4.34673311824346556E-02 -4.39849271429748820E-02 -4.45083599812154604E-02
 -4.50376871791396682E-02 -4.55729665636673484E-02 -4.61142563021621418E-02
 -4.66616148976763123E-02 -4.72151011839318097E-02 -4.77747743200273717E-02
 -4.83406937848651352E-02 -4.89129193713000940E-02 -4.94915111799912599E-02
 -5.00765296129479232E-02 -5.06680353667644801E-02 -5.12660894255307226E-02
 -5.18707530534175884E-02 -5.24820877869284011E-02 -5.31001554267994183E-02
 -5.37250180295427010E-02 -5.43567378986227201E-02 -5.49953775752544463E-02
 -5.56409998288161511E-02 -5.62936676468708541E-02 -5.69534442247769182E-02
 -5.76203929548802299E-02 -5.82945774152786728E-02 -5.89760613581444271E-02
 -5.96649086975944778E-02 -6.03611834971019903E-02 -6.10649499564327874E-02
 -6.17762723980937595E-02 -6.24952152532817148E-02 -6.32218430473207443E-02
 -6.39562203845744776E-02 -6.46984119328199020E-02 -6.54484824070711846E-02
 -6.62064965528417204E-02 -6.69725191288260829E-02 -6.77466148889888514E-02
 -6.85288485640468542E-02 -6.93192848423312136E-02 -7.01179883500110124E-02
 -7.09250236306670778E-02 -7.17404551241969113E-02 -7.25643471450413552E-02
 -7.33967638597109034E-02 -7.42377692635967645E-02 -7.50874271570508289E-02
 -7.59458011207175959E-02 -7.68129544901016981E-02 -7.76889503293513584E-02
 -7.85738514042433334E-02 -7.94677201543471101E-02 -8.03706186643558251E-02
 -8.12826086345625892E-02 -8.22037513504610684E-02 -8.31341076514538480E-02
 -8.40737378986494838E-02 -8.50227019417264668E-02 -8.59810590848462120E-02
 -8.69488680515936030E-02 -8.79261869489249837E-02 -8.89130732301027238E-02
 -8.99095836565944190E-02 -9.09157742589173368E-02 -9.19317002964063906E-02
 -9.29574162158799538E-02 -9.39929756091860275E-02 -9.50384311696029493E-02
 -9.60938346470735366E-02 -9.71592368022497765E-02 -9.82346873593228087E-02
 -9.93202349576176452E-02 -1.00415927101926664E-01 -1.01521810111558475E-01
 -1.02637929068078795E-01 -1.03764327761716638E-01 -1.04901048636413877E-01
 -1.06048132733492020E-01 -1.07205619633910496E-01 -1.08373547399092524E-01
 -1.09551952510292344E-01 -1.10740869806477904E-01 -1.11940332420703670E-01
 -1.13150371714948031E-01 -1.14371017213387924E-01 -1.15602296534086699E-01
 -1.16844235319066597E-01 -1.18096857162741431E-01 -1.19360183538681497E-01
 -1.20634233724686235E-01 -1.21919024726135708E-01 -1.23214571197596170E-01
 -1.24520885362653877E-01 -1.25837976931947093E-01 -1.27165853019376246E-01
 -1.28504518056457046E-01 -1.29853973704801257E-01 -1.31214218766689650E-01
 -1.32585249093715274E-01 -1.33967057493472930E-01 -1.35359633634266285E-01
 -1.36762963947808708E-01 -1.38177031529892497E-01 -1.39601816039004178E-01
 -1.41037293592858826E-01 -1.42483436662829588E-01 -1.43940213966253117E-01
 -1.45407590356581934E-01 -1.46885526711367231E-01 -1.48373979818046259E-01
 -1.49872902257515456E-01 -1.51382242285468122E-01 -1.52901943711477223E-01
 -1.54431945775803853E-01 -1.55972183023913580E-01 -1.57522585178683838E-01
 -1.59083077010286511E-01 -1.60653578203728969E-01 -1.62234003224040441E-01
 -1.63824261179092240E-01 -1.65424255680035936E-01 -1.67033884699355539E-01
 -1.68653040426516687E-01 -1.70281609121212291E-01 -1.71919470964195159E-01
 -1.73566499905692423E-01 -1.75222563511402613E-01 -1.76887522806068731E-01
 -1.78561232114634733E-01 -1.80243538900982464E-01 -1.81934283604259256E-01
 -1.83633299472797523E-01 -1.85340412395641280E-01 -1.87055440731688088E-01
 -1.88778195136460825E-01 -1.90508478386527624E-01 -1.92246085201588562E-01
 -1.93990802064251538E-01 -1.95742407037522409E-01 -1.97500669580038424E-01
 -1.99265350359077831E-01 -2.01036201061376790E-01 -2.02812964201796453E-01
 -2.04595372929880781E-01 -2.06383150834349077E-01 -2.08176011745576650E-01
 -2.09973659536114132E-01 -2.11775787919307318E-01 -2.13582080246075473E-01
 -2.15392209299919285E-01 -2.17205837090228920E-01 -2.19022614643967273E-01
 -2.20842181795813108E-01 -2.22664166976850042E-01 -2.24488187001891326E-01
 -2.26313846855541817E-01 -2.28140739477102145E-01 -2.29968445544418421E-01
 -2.31796533256801607E-01 -2.33624558117134201E-01 -2.35452062713291610E-01
 -2.37278576499023508E-01 -2.39103615574423195E-01 -2.40926682466150066E-01
 -2.42747265907553911E-01 -2.44564840618865825E-01 -2.46378867087636622E-01
 -2.48188791349593318E-01 -2.49994044770115414E-01 -2.51794043826513825E-01
 -2.53588189891339300E-01 -2.55375869016915669E-01 -2.57156451721337165E-01
 -2.58929292776161390E-01 -2.60693730996040762E-01 -2.62449089030546479E-01
 -2.64194673158453852E-01 -2.65929773084762178E-01 -2.67653661740733295E-01
 -2.69365595087249499E-01 -2.71064811921800541E-01 -2.72750533689409824E-01
 -2.74421964297846155E-01 -2.76078289937453702E-01 -2.77718678905962468E-01
 -2.79342281438639428E-01 -2.80948229544175476E-01 -2.82535636846685645E-01
 -2.84103598434243931E-01 -2.85651190714365344E-01 -2.87177471276871932E-01
 -2.88681478764592936E-01 -2.90162232752355809E-01 -2.91618733634752214E-01
 -2.93049962523165397E-01 -2.94454881152564962E-01 -2.95832431798590478E-01
 -2.97181537205460311E-01 -2.98501100525258911E-01 -2.99790005269159776E-01
 -3.01047115271179500E-01 -3.02271274665049439E-01 -3.03461307874823283E-01
 -3.04616019619849077E-01 -3.05734194934750458E-01 -3.06814599205082139E-01
 -3.07855978219324977E-01 -3.08857058237935522E-01 -3.09816546080133870E-01
 -3.10733129229179117E-01 -3.11605475956858224E-01 -3.12432235467952957E-01
 -3.13212038065459941E-01 -3.13943495337349499E-01 -3.14625200365673818E-01
 -3.15255727958836385E-01 -3.15833634907872696E-01 -3.16357460267582602E-01
 -3.16825725663383351E-01 -3.17236935624768790E-01 -3.17589577946262469E-01
 -3.17882124076779238E-01 -3.18113029538313330E-01 -3.18280734374893792E-01
 -3.18383663632743119E-01 -3.18420227872615647E-01 -3.18388823715263503E-01
 -3.18287834421032256E-01 -3.18115630504558211E-01 -3.17870570385581308E-01
 -3.17551001076866068E-01 -3.17155258910254645E-01 -3.16681670301861395E-01
 -3.16128552557444709E-01 -3.15494214718982757E-01 -3.14776958453478084E-01
 -3.13975078985019695E-01 -3.13086866071143888E-01 -3.12110605024514820E-01
 -3.11044577780954457E-01 -3.09887064014846392E-01 -3.08636342302920919E-01
 -3.07290691337434085E-01 -3.05848391189735003E-01 -3.04307724625198284E-01
 -3.02666978470504167E-01 -3.00924445034198573E-01 -2.99078423581484287E-01
 -2.97127221864143420E-01 -2.95069157706482066E-01 -2.92902560648155563E-01
 -2.90625773644705987E-01 -2.88237154826613162E-01 -2.85735079317617546E-01
 -2.83117941113045724E-01 -2.80384155018818693E-01 -2.77532158651785432E-01
 -2.74560414501972605E-01 -2.71467412057291690E-01 -2.68251669991192765E-01
 -2.64911738413683151E-01 -2.61446201186095295E-01 -2.57853678299884759E-01
 -2.54132828319708404E-01 -2.50282350890930594E-01 -2.46300989311641683E-01
 -2.42187533169194363E-01 -2.37940821041164902E-01 -2.33559743260545377E-01
 -2.29043244744944224E-01 -2.24390327889456315E-01 -2.19600055522666815E-01
 -2.14671553925234959E-01 -2.09604015910390323E-01 -2.04396703965521537E-01
 -1.99048953453958261E-01 -1.93560175875879092E-01 -1.87929862187181995E-01
 -1.82157586174989228E-01 -1.76243007888337994E-01 -1.70185877122440182E-01
 -1.63986036954747422E-01 -1.57643427330897923E-01 -1.51158088698434195E-01
 -1.44530165686025308E-01 -1.37759910825710319E-01 -1.30847688315505778E-01
 -1.23793977819496429E-01 -1.16599378302310167E-01 -1.09264611894659233E-01
 -1.01790527786356846E-01 -9.41781061430014832E-02 -8.64284620422128697E-02
 -7.85428494250476894E-02 -7.05226650579183351E-02 -6.23694525000291350E-02
 -5.40849060710410362E-02 -4.56708748133385425E-02 -3.71293664429708375E-02
 -2.84625512829471752E-02 -1.96727661722769197E-02 -1.07625183442211642E-02
 -1.73448926631471646E-03  7.40846156516476381E-03  1.66632928837785674E-02
  2.60267779721651479E-02  3.54955010496022516E-02  4.50658537354237387E-02
  5.47340315956709178E-02  6.44960307799907762E-02  7.43476447553436254E-02
  8.42844611424945767E-02  9.43018586604950776E-02  1.04395004183581816E-01
  1.14558849913953056E-01  1.24788130672993533E-01  1.35077361312605726E-01
  1.45420834247535491E-01  1.55812617109012036E-01  1.66246550519765085E-01
  1.76716245990620524E-01  1.87215083939474641E-01  1.97736211834666664E-01
  2.08272542466507615E-01  2.18816752353130028E-01  2.29361280289814840E-01
  2.39898326054423100E-01  2.50419849285515639E-01  2.60917568553984236E-01
  2.71382960653491156E-01  2.81807260138224047E-01  2.92181459141884980E-01
  3.02496307514648899E-01  3.12742313317300624E-01  3.22909743713606423E-01
  3.32988626302390567E-01  3.42968750929903698E-01  3.52839672020629658E-01
  3.62590711460794635E-01  3.72210962063538264E-01  3.81689291638354355E-01
  3.91014347680385010E-01  4.00174562687963642E-01  4.09158160110162317E-01
  4.17953160920386868E-01  4.26547390807957338E-01  4.34928487977221889E-01
  4.43083911543282027E-01  4.51000950514650556E-01  4.58666733355824641E-01
  4.66068238126422230E-01  4.73192303197644215E-01  4.80025638551001776E-01
  4.86554837668022155E-01  4.92766390022761569E-01  4.98646694191292150E-01
  5.04182071593894499E-01  5.09358780886126739E-01  5.14163033013714688E-01
  5.18581006947743894E-01  5.22598866113995308E-01  5.26202775528965438E-01
  5.29378919653600177E-01  5.32113520974209497E-01  5.34392859318456259E-01
  5.36203291912909719E-01  5.37531274187423747E-01  5.38363381330510204E-01
  5.38686330599055019E-01  5.38487004384957224E-01  5.37752474040756656E-01
  5.36470024465862005E-01  5.34627179454613022E-01  5.32211727807126889E-01
  5.29211750203591791E-01  5.25615646842351403E-01  5.21412165841847575E-01
  5.16590432406057176E-01  5.11139978752631063E-01  5.05050774802411895E-01
  4.98313259628316241E-01  4.90918373660827911E-01  4.82857591646462969E-01
  4.74122956354600056E-01  4.64707113026695040E-01  4.54603344560412626E-01
  4.43805607420582060E-01  4.32308568266431603E-01  4.20107641282937316E-01
  4.07199026202074821E-01  3.93579746997592184E-01  3.79247691234493089E-01
  3.64201650051759418E-01  3.48441358754045305E-01  3.31967537984941219E-01
  3.14781935451137251E-01  2.96887368163266940E-01  2.78287765155381672E-01
  2.58988210641058647E-01  2.38994987559782351E-01  2.18315621462840836E-01
  1.96958924683133585E-01  1.74935040728441710E-01  1.52255488832490626E-01
  1.28933208592820814E-01  1.04982604618986827E-01  8.04195911089421595E-02
  5.52616362658042495E-02  2.95278064612854892E-02  3.23881004624596795E-03
 -2.35829592978572429E-02 -5.09133797749304340E-02 -7.87265593755207965E-02
 -1.06994794586024594E-01 -1.35688530032271437E-01 -1.64776319189442577E-01
 -1.94224786294573903E-01 -2.23998589602165399E-01 -2.54060386126958027E-01
 -2.84370798021300608E-01 -3.14888380737397833E-01 -3.45569593127177721E-01
 -3.76368769634982558E-01 -4.07238094740321133E-01 -4.38127579810319134E-01
 -4.68985042524144691E-01 -4.99756089034981532E-01 -5.30384099039583168E-01
 -5.60810213931287826E-01 -5.90973328220378957E-01 -6.20810084416096086E-01
 -6.50254871578314630E-01 -6.79239827764227200E-01 -7.07694846616940376E-01
 -7.35547588369316219E-01 -7.62723495568288667E-01 -7.89145813864098988E-01
 -8.14735618239052162E-01 -8.39411845112235544E-01 -8.63091330805194401E-01
 -8.85688856905349930E-01 -9.07117203123595561E-01 -9.27287208300534904E-01
 -9.46107840270670297E-01 -9.63486275340707965E-01 -9.79327988170698327E-01
 -9.93536852854754571E-01 -1.00601525596878538E+00 -1.01666422226751751E+00
 -1.02538355354903943E+00 -1.03207198093408037E+00 -1.03662733039878519E+00
 -1.03894670082671081E+00 -1.03892665309406507E+00 -1.03646340778720125E+00
 -1.03145304813851690E+00 -1.02379172379539063E+00 -1.01337585033696786E+00
 -1.00010229934531947E+00 -9.83868574692090658E-01 -9.64572972854028765E-01
 -9.42114728682293956E-01 -9.16394152939509432E-01 -8.87312773438827196E-01
 -8.54773496729479443E-01 -8.18680810477678822E-01 -7.78941046716318697E-01
 -7.35462722130084345E-01 -6.88156963610274341E-01 -6.36938016737515489E-01
 -5.81723823942620011E-01 -5.22436650613959386E-01 -4.59003733634941846E-01
 -3.91357928623318974E-01 -3.19438338596530758E-01 -2.43190915610454389E-01
 -1.62569035440352255E-01 -7.75340515719959988E-02  1.19441621694153857E-02
  1.05886670805793226E-01  2.04304931349364644E-01  3.07200234596037569E-01
  4.14563132876455964E-01  5.26372853286761866E-01  6.42596697576816034E-01
  7.63189430995201867E-01  8.88092663088656087E-01  1.01723422384996742E+00
  1.15052753882823988E+00  1.28787100689527945E+00  1.42914738438406452E+00
  1.57422317932792666E+00  1.72294805951733210E+00  1.87515427809398871E+00
  2.03065612042629207E+00  2.18924937606744630E+00  2.35071083969212324E+00
  2.51479784504696813E+00  2.68124783613357165E+00  2.84977798007119176E+00
  3.02008482635631292E+00  3.19184401754313729E+00  3.36471005670889856E+00
  3.53831613743176199E+00  3.71227404239273184E+00  3.88617411710950256E+00
  4.05958532571190744E+00  4.23205539607128500E+00  4.40311106199144220E+00
  4.57225841055357218E+00  4.73898334307264069E+00  4.90275215846458501E+00
  5.06301226814502847E+00  5.21919305185353988E+00  5.37070686392945618E+00
  5.51695019988804880E+00  5.65730503317620403E+00  5.79114033201967260E+00
  5.91781376623031452E+00  6.03667361369334632E+00  6.14706087599717854E+00
  6.24831161228713938E+00  6.33975949990468024E+00  6.42073862970139952E+00
  6.49058654307421268E+00  6.54864751674013235E+00  6.59427610003645270E+00
  6.62684090807992288E+00  6.64572867242769938E+00  6.65034854893674776E+00
  6.64013668030067805E+00  6.61456100823669502E+00  6.57312632741389447E+00
  6.51537957042176075E+00  6.44091530925212830E+00  6.34938145456677194E+00
  6.24048513139209504E+00  6.11399870388009781E+00  5.96976591781027732E+00
  5.80770812387810320E+00  5.62783053979301329E+00  5.43022850342218533E+00
  5.21509366306760569E+00  4.98272004479809372E+00  4.73350993033867695E+00
  4.46797947245993932E+00  4.18676396816936691E+00  3.89062270335610494E+00
  3.58044327595711520E+00  3.25724529829350296E+00  2.92218337306715403E+00
  2.57654923173172712E+00  2.22177291869201010E+00  1.85942290018399370E+00
  1.49120497292126997E+00  1.11895984483817412E+00  7.44659258734308160E-01
  3.70400529556151548E-01 -1.60063230611855764E-03 -3.69019135686696031E-01
 -7.29431479319939791E-01 -1.08032878799658860E+00 -1.41913201213836038E+00
 -1.74320937407214882E+00 -2.04989612516378106E+00 -2.33651665531034736E+00
 -2.60040896994504189E+00 -2.83895151719793848E+00 -3.04959231103259221E+00
 -3.22988025393339084E+00 -3.37749851499975673E+00 -3.49029976606658199E+00
 -3.56634301978572354E+00 -3.60393174969093888E+00 -3.60165290353031953E+00
 -3.55841634819220820E+00 -3.47349420821840260E+00 -3.34655948129684999E+00
 -3.17772323465071960E+00 -2.96756960759595234E+00 -2.71718776975883269E+00
 -2.42819991389655820E+00 -2.10278429966127067E+00 -1.74369231303255234E+00
 -1.35425846886766910E+00 -9.38402264712872691E-01 -5.00620796530232726E-01
 -4.59710753233977670E-02  4.19958958203759281E-01  8.91091632234794706E-01
  1.36091373622494194E+00  1.82254431678166218E+00  2.26881647274007836E+00
  2.69237328381880037E+00  3.08577769887759645E+00  3.44163585413889539E+00
  3.75273289020975698E+00  4.01217989253787710E+00  4.21357009818010830E+00
  4.35114199980516680E+00  4.41994644545988624E+00  4.41601429218861785E+00
  4.33652063826651002E+00  4.17994115057791227E+00  3.94619554137302009E+00
  3.63677285580881504E+00  3.25483293433265608E+00  2.80527824014817728E+00
  2.29479022121446175E+00  1.73182453858776797E+00  1.12655986811263831E+00
  4.90795598441277070E-01 -1.62205370272835880E-01 -8.17931356805276844E-01
 -1.46089532671668354E+00 -2.07496641779672952E+00 -2.64375691073040597E+00
 -3.15105967500547202E+00 -3.58132857163926621E+00 -3.92019158000670398E+00
 -4.15498361488783008E+00 -4.27528321376391496E+00 -4.27343462760488357E+00
 -4.14503448644309991E+00 -3.88936029853504195E+00 -3.50971675860290411E+00
 -3.01367537549664322E+00 -2.41318347283791290E+00 -1.72452034901231954E+00
 -9.68081464972791794E-01 -1.67976083329350823E-01  6.48570118629861470E-01
  1.45200829467645409E+00  2.21144726292805061E+00  2.89580328320921199E+00
  3.47508880440169854E+00  3.92179835854925463E+00  4.21233798495099432E+00
  4.32843353822529053E+00  4.25844378895358044E+00  3.99849721370260669E+00
  3.55336794711062431E+00  2.93700725938624663E+00  2.17265312127242138E+00
  1.29245264583347197E+00  3.36550894392951605E-01 -6.48375189685139630E-01
 -1.61112745998828033E+00 -2.49849479771923288E+00 -3.25817126433944360E+00
 -3.84195441385357839E+00 -4.20905316218965098E+00 -4.32929850168355923E+00
 -4.18602284436500849E+00 -3.77835896021932616E+00 -3.12271132020380016E+00
 -2.25317462999481632E+00 -1.22071895699840205E+00 -9.10291559780075921E-02
  1.05902262197376595E+00  2.14618199579933355E+00  3.08668161688304288E+00
  3.80283252606389244E+00  4.22987353014937995E+00  4.32251284985723494E+00
  4.06052936998553982E+00  3.45278388455583407E+00  2.53903595065557397E+00
  1.38907833616270637E+00  9.88917500427797247E-02 -1.21621744225897754E+00
 -2.43121883963205709E+00 -3.42307594103144597E+00 -4.08361616095578572E+00
 -4.33229174024361186E+00 -4.12738368831325264E+00 -3.47409890660732579E+00
 -2.42819327339740498E+00 -1.09401646963852683E+00  3.83569764033626137E-01
  1.83324876785000601E+00  3.07630841452578485E+00  3.94887509931949765E+00
  4.32477304476429669E+00  4.13585776047290121E+00  3.38660631128652456E+00
                              </PP_AEWFC.2>
 <PP_AEWFC.3 type="real" size="   999" l="1" columns="3" label= "3P">
 -2.37299154934630093E-07 -2.42542472924128371E-07 -2.47902357190406459E-07
 -2.53381422009644403E-07 -2.58982342060909430E-07 -2.64707850347260402E-07
 -2.70560740770966735E-07 -2.76543874217856964E-07 -2.82660175620877232E-07
 -2.88912633833921016E-07 -2.95304307201468067E-07 -3.01838325639102367E-07
 -3.08517887681388108E-07 -3.15346263714355160E-07 -3.22326802117796655E-07
 -3.29462925848328917E-07 -3.36758133578511389E-07 -3.44216006973531083E-07
 -3.51840209041817563E-07 -3.59634483490422873E-07 -3.67602661960030849E-07
 -3.75748664242170780E-07 -3.84076496549897313E-07 -3.92590258747436782E-07
 -4.01294145424353517E-07 -4.10192443893023836E-07 -4.19289541840819293E-07
 -4.28589928033140381E-07 -4.38098190883284512E-07 -4.47819026857150024E-07
 -4.57757239633906045E-07 -4.67917740464551757E-07 -4.78305556830605563E-07
 -4.88925829505306592E-07 -4.99783816450787564E-07 -5.10884899389268936E-07
 -5.22234580341692591E-07 -5.33838489716969813E-07 -5.45702387839217691E-07
 -5.57832164959964543E-07 -5.70233850463228059E-07 -5.82913609713817520E-07
 -5.95877751259268587E-07 -6.09132729949608480E-07 -6.22685146939620630E-07
 -6.36541759101714716E-07 -6.50709476095717833E-07 -6.65195369380206339E-07
 -6.80006673003761370E-07 -6.95150787595553442E-07 -7.10635286877949877E-07
 -7.26467917053312182E-07 -7.42656606897366852E-07 -7.59209465646340983E-07
 -7.76134793333999251E-07 -7.93441080158088896E-07 -8.11137014920085268E-07
 -8.29231487108201169E-07 -8.47733593037483265E-07 -8.66652640481680998E-07
 -8.85998153054662996E-07 -9.05779876694784839E-07 -9.26007783070006290E-07
 -9.46692077164650426E-07 -9.67843200438189285E-07 -9.89471838865114482E-07
 -1.01158892647205045E-06 -1.03420565326800086E-06 -1.05733346972956916E-06
 -1.08098409408751524E-06 -1.10516951831428182E-06 -1.12990201426498227E-06
 -1.15519414163746259E-06 -1.18105875265210874E-06 -1.20750900211186099E-06
 -1.23455835087326017E-06 -1.26222057730327269E-06 -1.29050978087078743E-06
 -1.31944039314657980E-06 -1.34902718366239962E-06 -1.37928526852141125E-06
 -1.41023011986578515E-06 -1.44187757189001370E-06 -1.47424383273578658E-06
 -1.50734549060993191E-06 -1.54119952443480142E-06 -1.57582331353153984E-06
 -1.61123464536070932E-06 -1.64745172791628447E-06 -1.68449319789632912E-06
 -1.72237813127436137E-06 -1.76112605535021099E-06 -1.80075695753713283E-06
 -1.84129129766790405E-06 -1.88275001980726058E-06 -1.92515456238586282E-06
 -1.96852687140772571E-06 -2.01288941277766683E-06 -2.05826518366145847E-06
 -2.10467772630061266E-06 -2.15215114145683792E-06 -2.20071010083544740E-06
 -2.25037986138535021E-06 -2.30118628018161898E-06 -2.35315582798470009E-06
 -2.40631560409936925E-06 -2.46069335236245517E-06 -2.51631747645961937E-06
 -2.57321705547368530E-06 -2.63142186047284430E-06 -2.69096237184039700E-06
 -2.75186979601923864E-06 -2.81417608297743615E-06 -2.87791394439177876E-06
 -2.94311687254059383E-06 -3.00981915900772209E-06 -3.07805591394865643E-06
 -3.14786308604917502E-06 -3.21927748307673270E-06 -3.29233679293048207E-06
 -3.36707960481608707E-06 -3.44354543118654619E-06 -3.52177473026376979E-06
 -3.60180892913163958E-06 -3.68369044748238204E-06 -3.76746272171185635E-06
 -3.85317022966817444E-06 -3.94085851608110225E-06 -4.03057421861657590E-06
 -4.12236509457223378E-06 -4.21628004825201879E-06 -4.31236915901555241E-06
 -4.41068370993482543E-06 -4.51127621721525132E-06 -4.61420046035357377E-06
 -4.71951151304016379E-06 -4.82726577482429527E-06 -4.93752100356173596E-06
 -5.05033634866415248E-06 -5.16577238517039830E-06 -5.28389114866115665E-06
 -5.40475617103951393E-06 -5.52843251718714217E-06 -5.65498682253142245E-06
 -5.78448733154541653E-06 -5.91700393720025854E-06 -6.05260822139348105E-06
 -6.19137349637773193E-06 -6.33337484721449513E-06 -6.47868917527828730E-06
 -6.62739524283745953E-06 -6.77957371873806641E-06 -6.93530722521830640E-06
 -7.09468038588139487E-06 -7.25777987485548617E-06 -7.42469446717016276E-06
 -7.59551509037928341E-06 -7.77033487746126466E-06 -7.94924922102811365E-06
 -8.13235582887567337E-06 -8.31975478090856843E-06 -8.51154858747852270E-06
 -8.70784224916180884E-06 -8.90874331801183448E-06 -9.11436196032927940E-06
 -9.32481102098456803E-06 -9.54020608933086135E-06 -9.76066556674705365E-06
 -9.98631073585041862E-06 -1.02172658314203958E-05 -1.04536581130759115E-05
 -1.06956179397732018E-05 -1.09432788461427721E-05 -1.11967776206620924E-05
 -1.14562543857857331E-05 -1.17218526800583985E-05 -1.19937195422559937E-05
 -1.22720055976123670E-05 -1.25568651462474594E-05 -1.28484562536836118E-05
 -1.31469408435677411E-05 -1.34524847927275270E-05 -1.37652580285761204E-05
 -1.40854346290071989E-05 -1.44131929247244737E-05 -1.47487156039317734E-05
 -1.50921898197027643E-05 -1.54438073000336273E-05 -1.58037644607682551E-05
 -1.61722625210428006E-05 -1.65495076215675258E-05 -1.69357109459360770E-05
 -1.73310888451338228E-05 -1.77358629648113743E-05 -1.81502603756242875E-05
 -1.85745137069990467E-05 -1.90088612844035536E-05 -1.94535472694854240E-05
 -1.99088218038042267E-05 -2.03749411564795140E-05 -2.08521678751954440E-05
 -2.13407709406278199E-05 -2.18410259251736389E-05 -2.23532151555736189E-05
 -2.28776278789326009E-05 -2.34145604334054799E-05 -2.39643164231669580E-05
 -2.45272068969455708E-05 -2.51035505316618130E-05 -2.56936738205230967E-05
 -2.62979112650464936E-05 -2.69166055727302239E-05 -2.75501078590526750E-05
 -2.81987778541627409E-05 -2.88629841155830167E-05 -2.95431042450094327E-05
 -3.02395251111258395E-05 -3.09526430779396791E-05 -3.16828642379150303E-05
 -3.24306046520454394E-05 -3.31962905945557075E-05 -3.39803588044700864E-05
 -3.47832567430601095E-05 -3.56054428572163750E-05 -3.64473868501864249E-05
 -3.73095699576268217E-05 -3.81924852318648979E-05 -3.90966378316715191E-05
 -4.00225453203572541E-05 -4.09707379701662608E-05 -4.19417590747715827E-05
 -4.29361652690103608E-05 -4.39545268565313360E-05 -4.49974281455286972E-05
 -4.60654677923804412E-05 -4.71592591540500808E-05 -4.82794306485947433E-05
 -4.94266261249431160E-05 -5.06015052411841346E-05 -5.18047438524716101E-05
 -5.30370344080390542E-05 -5.42990863580233762E-05 -5.55916265701888979E-05
 -5.69153997565101206E-05 -5.82711689106130948E-05 -5.96597157550370259E-05
 -6.10818412003761815E-05 -6.25383658142959455E-05 -6.40301303032506065E-05
 -6.55579960045537987E-05 -6.71228453914325701E-05 -6.87255825895884863E-05
 -7.03671339064346186E-05 -7.20484483734627057E-05 -7.37704983008689852E-05
 -7.55342798466722827E-05 -7.73408135984515781E-05 -7.91911451698487927E-05
 -8.10863458112733639E-05 -8.30275130348368385E-05 -8.50157712552260914E-05
 -8.70522724450146883E-05 -8.91381968062925621E-05 -9.12747534585016385E-05
 -9.34631811421138508E-05 -9.57047489400294636E-05 -9.80007570157164941E-05
 -1.00352537368944716E-04 -1.02761454610244131E-04 -1.05228906753146705E-04
 -1.07756326025640312E-04 -1.10345179701384647E-04 -1.12996970950061563E-04
 -1.15713239708403634E-04 -1.18495563572222564E-04 -1.21345558709057044E-04
 -1.24264880792912525E-04 -1.27255225961459776E-04 -1.30318331795404717E-04
 -1.33455978321391633E-04 -1.36669989038985085E-04 -1.39962231971498826E-04
 -1.43334620741834433E-04 -1.46789115674106070E-04 -1.50327724921012527E-04
 -1.53952505617721471E-04 -1.57665565063286285E-04 -1.61469061929944891E-04
 -1.65365207500543250E-04 -1.69356266935298500E-04 -1.73444560568552435E-04
 -1.77632465235737734E-04 -1.81922415631417139E-04 -1.86316905699352196E-04
 -1.90818490055260113E-04 -1.95429785442545532E-04 -2.00153472222154262E-04
 -2.04992295897340706E-04 -2.09949068674090251E-04 -2.15026671057621903E-04
 -2.20228053486165928E-04 -2.25556238002818320E-04 -2.31014319966319425E-04
 -2.36605469801277662E-04 -2.42332934789030819E-04 -2.48200040900022263E-04
 -2.54210194668648382E-04 -2.60366885111250942E-04 -2.66673685688301209E-04
 -2.73134256311875062E-04 -2.79752345399354003E-04 -2.86531791974365888E-04
 -2.93476527815746439E-04 -3.00590579655828538E-04 -3.07878071429075256E-04
 -3.15343226572148622E-04 -3.22990370376490215E-04 -3.30823932394363487E-04
 -3.38848448899740993E-04 -3.47068565405133863E-04 -3.55489039235552535E-04
 -3.64114742160841372E-04 -3.72950663087409943E-04 -3.82001910810821923E-04
 -3.91273716830487471E-04 -4.00771438227725879E-04 -4.10500560608585978E-04
 -4.20466701112653864E-04 -4.30675611489196835E-04 -4.41133181242174066E-04
 -4.51845440845452843E-04 -4.62818565029692833E-04 -4.74058876142387068E-04
 -4.85572847582476568E-04 -4.97367107311023535E-04 -5.09448441439587052E-04
 -5.21823797897836596E-04 -5.34500290181972671E-04 -5.47485201185581765E-04
 -5.60785987114608428E-04 -5.74410281487972279E-04 -5.88365899225615501E-04
 -6.02660840825728359E-04 -6.17303296632850263E-04 -6.32301651198644639E-04
 -6.47664487737113119E-04 -6.63400592676134703E-04 -6.79518960307091383E-04
 -6.96028797534443554E-04 -7.12939528727261733E-04 -7.30260800674567925E-04
 -7.48002487646469427E-04 -7.66174696563052030E-04 -7.84787772273024616E-04
 -8.03852302944203117E-04 -8.23379125567816512E-04 -8.43379331578699722E-04
 -8.63864272593550049E-04 -8.84845566269349543E-04 -9.06335102284115289E-04
 -9.28345048442133893E-04 -9.50887856905901791E-04 -9.73976270556990644E-04
 -9.97623329488077229E-04 -1.02184237762845088E-03 -1.04664706950517651E-03
 -1.07205137714231334E-03 -1.09806959710051976E-03 -1.12471635765936002E-03
 -1.15200662614471584E-03 -1.17995571640365114E-03 -1.20857929642915487E-03
 -1.23789339613718827E-03 -1.26791441529842323E-03 -1.29865913162718351E-03
 -1.33014470903001039E-03 -1.36238870601628880E-03 -1.39540908427344674E-03
 -1.42922421740920543E-03 -1.46385289986339850E-03 -1.49931435599181509E-03
 -1.53562824932460028E-03 -1.57281469200169343E-03 -1.61089425438779780E-03
 -1.64988797486941658E-03 -1.68981736983639321E-03 -1.73070444385049088E-03
 -1.77257170000346006E-03 -1.81544215046705528E-03 -1.85933932723750511E-03
 -1.90428729307675227E-03 -1.95031065265296620E-03 -1.99743456388270287E-03
 -2.04568474947706405E-03 -2.09508750869418685E-03 -2.14566972930036208E-03
 -2.19745889974205712E-03 -2.25048312153104668E-03 -2.30477112184483300E-03
 -2.36035226634449943E-03 -2.41725657221204511E-03 -2.47551472140924945E-03
 -2.53515807415999935E-03 -2.59621868265796961E-03 -2.65872930500149658E-03
 -2.72272341935735421E-03 -2.78823523835510130E-03 -2.85529972371357729E-03
 -2.92395260110101798E-03 -2.99423037523014000E-03 -3.06617034518946556E-03
 -3.13981062001205411E-03 -3.21519013448267601E-03 -3.29234866518430397E-03
 -3.37132684678469576E-03 -3.45216618856372800E-03 -3.53490909118186819E-03
 -3.61959886369019350E-03 -3.70627974078201628E-03 -3.79499690028613093E-03
 -3.88579648090144492E-03 -3.97872560017255728E-03 -4.07383237270569128E-03
 -4.17116592862409614E-03 -4.27077643226190639E-03 -4.37271510109508814E-03
 -4.47703422490793295E-03 -4.58378718519331096E-03 -4.69302847478454167E-03
 -4.80481371771654224E-03 -4.91919968931352723E-03 -5.03624433650030207E-03
 -5.15600679833382557E-03 -5.27854742675137184E-03 -5.40392780753125909E-03
 -5.53221078146182068E-03 -5.66346046571373704E-03 -5.79774227541067846E-03
 -5.93512294539258901E-03 -6.07567055216556157E-03 -6.21945453603191430E-03
 -6.36654572339344013E-03 -6.51701634922037618E-03 -6.67094007967824424E-03
 -6.82839203490396337E-03 -6.98944881192226607E-03 -7.15418850769287615E-03
 -7.32269074227814582E-03 -7.49503668212048776E-03 -7.67130906341809745E-03
 -7.85159221558689481E-03 -8.03597208479599548E-03 -8.22453625756315240E-03
 -8.41737398439605655E-03 -8.61457620346458945E-03 -8.81623556428818948E-03
 -9.02244645142198133E-03 -9.23330500812418083E-03 -9.44890915998671671E-03
 -9.66935863850991451E-03 -9.89475500460122899E-03 -1.01252016719772190E-02
 -1.03608039304466746E-02 -1.06016689690523053E-02 -1.08479058990467222E-02
 -1.10996257766779859E-02 -1.13569416257586070E-02 -1.16199684599906945E-02
 -1.18888233050190775E-02 -1.21636252201827982E-02 -1.24444953199341433E-02
 -1.27315567948934737E-02 -1.30249349325062668E-02 -1.33247571372679310E-02
 -1.36311529504805871E-02 -1.39442540695040324E-02 -1.42641943664626424E-02
 -1.45911099063676993E-02 -1.49251389646133121E-02 -1.52664220438031295E-02
 -1.56151018898623706E-02 -1.59713235073895669E-02 -1.63352341741990585E-02
 -1.67069834550053024E-02 -1.70867232141971789E-02 -1.74746076276488874E-02
 -1.78707931935131736E-02 -1.82754387419391297E-02 -1.86887054436569687E-02
 -1.91107568173682490E-02 -1.95417587358799640E-02 -1.99818794309173688E-02
 -2.04312894965496851E-02 -2.08901618911600390E-02 -2.13586719378888630E-02
 -2.18369973234790182E-02 -2.23253180954468451E-02 -2.28238166575034790E-02
 -2.33326777631462715E-02 -2.38520885073402605E-02 -2.43822383162052882E-02
 -2.49233189346236249E-02 -2.54755244116802865E-02 -2.60390510838450252E-02
 -2.66140975558045723E-02 -2.72008646788491730E-02 -2.77995555267171006E-02
 -2.84103753687966823E-02 -2.90335316405850724E-02 -2.96692339112981616E-02
 -3.03176938485259645E-02 -3.09791251798243530E-02 -3.16537436511307724E-02
 -3.23417669818919645E-02 -3.30434148167856184E-02 -3.37589086739192232E-02
 -3.44884718893843645E-02 -3.52323295580436457E-02 -3.59907084704257085E-02
 -3.67638370455993443E-02 -3.75519452598989043E-02 -3.83552645713673979E-02
 -3.91740278397850056E-02 -4.00084692421458082E-02 -4.08588241834455940E-02
 -4.17253292026409164E-02 -4.26082218736372545E-02 -4.35077407011641923E-02
 -4.44241250113908970E-02 -4.53576148371375859E-02 -4.63084507975327561E-02
 -4.72768739719693284E-02 -4.82631257682075085E-02 -4.92674477844737904E-02
 -5.02900816654040864E-02 -5.13312689516770421E-02 -5.23912509231852022E-02
 -5.34702684355887262E-02 -5.45685617500987347E-02 -5.56863703563356960E-02
 -5.68239327881081627E-02 -5.79814864319602580E-02 -5.91592673283330428E-02
 -6.03575099651898136E-02 -6.15764470639532380E-02 -6.28163093576077219E-02
 -6.40773253608156040E-02 -6.53597211319045523E-02 -6.66637200265835644E-02
 -6.79895424432458984E-02 -6.93374055597241745E-02 -7.07075230613615352E-02
 -7.21001048602713107E-02 -7.35153568056576834E-02 -7.49534803850782638E-02
 -7.64146724165312152E-02 -7.78991247312567220E-02 -7.94070238471499823E-02
 -8.09385506326839310E-02 -8.24938799612550677E-02 -8.40731803558637941E-02
 -8.56766136240565690E-02 -8.73043344830601309E-02 -8.89564901750494602E-02
 -9.06332200725001730E-02 -9.23346552735844622E-02 -9.40609181875845385E-02
 -9.58121221103004211E-02 -9.75883707894519142E-02 -9.93897579800757242E-02
 -1.01216366989938938E-01 -1.03068270215001243E-01 -1.04945528664970894E-01
 -1.06848191479018445E-01 -1.08776295431721098E-01 -1.10729864429335745E-01
 -1.12708908996505458E-01 -1.14713425753531134E-01 -1.16743396884352521E-01
 -1.18798789595403256E-01 -1.20879555565528096E-01 -1.22985630387170614E-01
 -1.25116932999055519E-01 -1.27273365110607800E-01 -1.29454810618401944E-01
 -1.31661135014935510E-01 -1.33892184790052826E-01 -1.36147786825379591E-01
 -1.38427747782146865E-01 -1.40731853482829294E-01 -1.43059868287039649E-01
 -1.45411534462170422E-01 -1.47786571549301415E-01 -1.50184675724934824E-01
 -1.52605519159164177E-01 -1.55048749370919170E-01 -1.57513988580988834E-01
 -1.60000833063560860E-01 -1.62508852497080858E-01 -1.65037589315282701E-01
 -1.67586558059302754E-01 -1.70155244731854005E-01 -1.72743106154493592E-01
 -1.75349569329092903E-01 -1.77974030804672084E-01 -1.80615856050839768E-01
 -1.83274378839134444E-01 -1.85948900633627956E-01 -1.88638689992208702E-01
 -1.91342981980002907E-01 -1.94060977596435480E-01 -1.96791843217439505E-01
 -1.99534710054340036E-01 -2.02288673630896837E-01 -2.05052793279878798E-01
 -2.07826091660539586E-01 -2.10607554298169186E-01 -2.13396129146699948E-01
 -2.16190726175092357E-01 -2.18990216977924923E-01 -2.21793434410223783E-01
 -2.24599172246145590E-01 -2.27406184860623778E-01 -2.30213186932556352E-01
 -2.33018853167550055E-01 -2.35821818037655173E-01 -2.38620675534993415E-01
 -2.41413978935686779E-01 -2.44200240570128180E-01 -2.46977931595410649E-01
 -2.49745481765716676E-01 -2.52501279196699790E-01 -2.55243670120414712E-01
 -2.57970958628193858E-01 -2.60681406400032345E-01 -2.63373232420544612E-01
 -2.66044612683338400E-01 -2.68693679887681003E-01 -2.71318523133544098E-01
 -2.73917187623394121E-01 -2.76487674381373449E-01 -2.79027940002673058E-01
 -2.81535896447832779E-01 -2.84009410898149017E-01 -2.86446305689685488E-01
 -2.88844358343875618E-01 -2.91201301712610383E-01 -2.93514824254944628E-01
 -2.95782570460965566E-01 -2.98002141436001788E-01 -3.00171095655185072E-01
 -3.02286949894548906E-01 -3.04347180340503565E-01 -3.06349223874942844E-01
 -3.08290479528729344E-01 -3.10168310092213795E-01 -3.11980043868143875E-01
 -3.13722976550044996E-01 -3.15394373208130907E-01 -3.16991470365029115E-01
 -3.18511478145004523E-01 -3.19951582482708830E-01 -3.21308947380456955E-01
 -3.22580717206312151E-01 -3.23764019028494998E-01 -3.24855964984565815E-01
 -3.25853654686248662E-01 -3.26754177662557377E-01 -3.27554615845037589E-01
 -3.28252046099476502E-01 -3.28843542808408607E-01 -3.29326180508218880E-01
 -3.29697036584148895E-01 -3.29953194025435048E-01 -3.30091744241835905E-01
 -3.30109789941808118E-01 -3.30004448071667900E-01 -3.29772852814236461E-01
 -3.29412158644777020E-01 -3.28919543441466289E-01 -3.28292211647239762E-01
 -3.27527397479549065E-01 -3.26622368184413869E-01 -3.25574427331069061E-01
 -3.24380918143516495E-01 -3.23039226865354079E-01 -3.21546786154357889E-01
 -3.19901078503426917E-01 -3.18099639684637003E-01 -3.16140062213300876E-01
 -3.14019998829063507E-01 -3.11737165991188003E-01 -3.09289347385298341E-01
 -3.06674397438928104E-01 -3.03890244843292467E-01 -3.00934896078752290E-01
 -2.97806438941415619E-01 -2.94503046068367746E-01 -2.91022978459133996E-01
 -2.87364588990662917E-01 -2.83526325923208478E-01 -2.79506736394402044E-01
 -2.75304469898678794E-01 -2.70918281749101986E-01 -2.66347036518481239E-01
 -2.61589711456497953E-01 -2.56645399879369573E-01 -2.51513314528349297E-01
 -2.46192790893128954E-01 -2.40683290495930485E-01 -2.34984404131785146E-01
 -2.29095855060179876E-01 -2.23017502142896923E-01 -2.16749342922528565E-01
 -2.10291516635727899E-01 -2.03644307154882187E-01 -1.96808145851449734E-01
 -1.89783614373772780E-01 -1.82571447331744796E-01 -1.75172534880251474E-01
 -1.67587925192898363E-01 -1.59818826817086646E-01 -1.51866610901104732E-01
 -1.43732813283326405E-01 -1.35419136434311416E-01 -1.26927451241184625E-01
 -1.18259798623795653E-01 -1.09418390972476631E-01 -1.00405613397102786E-01
 -9.12240247774434299E-02 -8.18763586051285824E-02 -7.23655236081733461E-02
 -6.26946041497385559E-02 -5.28668603937813494E-02 -4.28857282314679955E-02
 -3.27548189635652118E-02 -2.24779187356795029E-02 -1.20589877249546087E-02
 -1.50215907875341382E-03  9.18826239215521888E-03  2.00078017614224134E-02
  3.09518157695846084E-02  4.20154948331889488E-02  5.31938652713340732E-02
  6.44817917397544210E-02  7.58739798626942158E-02  8.73649790539632182E-02
  9.89491855210180848E-02  1.10620845449934890E-01  1.22374058375291916E-01
  1.34202780745066336E-01  1.46100829703233737E-01  1.58061887125055478E-01
  1.70079503955349987E-01  1.82147104919194447E-01  1.94257993696567710E-01
  2.06405358677534734E-01  2.18582279442123800E-01  2.30781734138231553E-01
  2.42996607959487215E-01  2.55219702949931571E-01  2.67443749377999695E-01
  2.79661418920619576E-01  2.91865339867536655E-01  3.04048114480443998E-01
  3.16202338502009184E-01  3.28320622584774235E-01  3.40395615080247904E-01
  3.52420025184534413E-01  3.64386644889693523E-01  3.76288367585533023E-01
  3.88118200588209450E-01  3.99869268487888008E-01  4.11534804199724380E-01
  4.23108125172877381E-01  4.34582593510764947E-01  4.45951560803108937E-01
  4.57208301088186997E-01  4.68345938130110495E-01  4.79357375509437744E-01
  4.90235239200792761E-01  5.00971841781821414E-01  5.11559174955449558E-01
  5.21988932962525021E-01  5.32252564560752761E-01  5.42341346757079679E-01
  5.52246470568936831E-01  5.61959128423061505E-01  5.71470594300035106E-01
  5.80772290666251245E-01  5.89855839589248032E-01  5.98713098328596538E-01
  6.07336181643013728E-01  6.15717473978191654E-01  6.23849634801692643E-01
  6.31725599940985205E-01  6.39338581144497042E-01  6.46682065425512764E-01
  6.53749815175211357E-01  6.60535869584587321E-01  6.67034547593534421E-01
  6.73240452367097619E-01  6.79148477160048003E-01  6.84753812347258628E-01
  6.90051953351100589E-01  6.95038709178041336E-01  6.99710211275706762E-01
  7.04062922433700944E-01  7.08093645472837152E-01  7.11799531495162396E-01
  7.15178087498932413E-01  7.18227183196389563E-01  7.20945056906101334E-01
  7.23330320424224404E-01  7.25381962809319991E-01  7.27099353042470531E-01
  7.28482241548029874E-01  7.29530760580206605E-01  7.30245423496960422E-01
  7.30627122955574415E-01  7.30677128074133542E-01  7.30397080610388771E-01
  7.29788990214503164E-01  7.28855228815420531E-01  7.27598524202341723E-01
  7.26021952863138420E-01  7.24128932141344106E-01  7.21923211774886053E-01
  7.19408864874230503E-01  7.16590278398136937E-01  7.13472143183228602E-01
  7.10059443581221750E-01  7.06357446755377594E-01  7.02371691685312660E-01
  6.98107977926806123E-01  6.93572354170635674E-01  6.88771106641759889E-01
  6.83710747377389794E-01  6.78398002419551838E-01  6.72839799954765949E-01
  6.67043258430327080E-01  6.61015674673426146E-01  6.54764512036032365E-01
  6.48297388584978540E-01  6.41622065353220417E-01  6.34746434664042347E-01
  6.27678508538692670E-01  6.20426407190372564E-01  6.12998347605746230E-01
  6.05402632214596781E-01  5.97647637639223239E-01  5.89741803515312357E-01
  5.81693621375708014E-01  5.73511623581448804E-01  5.65204372283237388E-01
  5.56780448397245831E-01  5.48248440577735030E-01  5.39616934169256823E-01
  5.30894500122428337E-01  5.22089683859453979E-01  5.13210994079197125E-01
  5.04266891494699721E-01  4.95265777503318294E-01  4.86215982794365176E-01
  4.77125755907031213E-01  4.68003251759162631E-01  4.58856520175762284E-01
  4.49693494454757259E-01  4.40521980016033099E-01  4.31349643187917742E-01
  4.22184000192761755E-01  4.13032406399639673E-01  4.03902045917372776E-01
  3.94799921604564563E-01  3.85732845575166072E-01  3.76707430277898381E-01
  3.67730080225078415E-01  3.58806984444595856E-01  3.49944109721308017E-01
  3.41147194684625010E-01  3.32421744792410823E-01  3.23773028250095962E-01
  3.15206072892356581E-01  3.06725664042592716E-01  2.98336343352947064E-01
  2.90042408615044656E-01  2.81847914519328280E-01  2.73756674328988037E-01
  2.65772262423388250E-01  2.57898017655622314E-01  2.50137047459646822E-01
  2.42492232634418381E-01  2.34966232725688118E-01  2.27561491920704018E-01
  2.20280245366961197E-01  2.13124525823528893E-01  2.06096170552252045E-01
  1.99196828356323519E-01  1.92427966675392220E-01  1.85790878649449043E-01
  1.79286690068250654E-01  1.72916366129004045E-01  1.66680717932135403E-01
  1.60580408652937212E-01  1.54615959337274483E-01  1.48787754279586654E-01
  1.43096045952710499E-01  1.37540959470891178E-01  1.32122496579381160E-01
  1.26840539176118317E-01  1.21694852382648905E-01  1.16685087192561279E-01
  1.11810782735796921E-01  1.07071368206058351E-01  1.02466164505957275E-01
  9.79943856702077953E-02  9.36551401311063320E-02  8.94474318925256306E-02
  8.53701616788070661E-02  8.14221281232864191E-02  7.76020290578459809E-02
  7.39084629601045734E-02  7.03399306087942600E-02  6.68948369908491103E-02
  6.35714934959643596E-02  6.03681204261844670E-02  5.72828498399408081E-02
  5.43137287414979658E-02  5.14587226172859569E-02  4.87157193158774607E-02
  4.60825332597239665E-02  4.35569099706549154E-02  4.11365308858923431E-02
  3.88190184367683683E-02  3.66019413586588863E-02  3.44828201977932583E-02
  3.24591329785841459E-02  3.05283209938759306E-02  2.86877946799614404E-02
  2.69349395383186099E-02  2.52671220666735481E-02  2.36816956631522545E-02
  2.21760064688439722E-02  2.07473991159951264E-02  1.93932223512362813E-02
  1.81108345056110107E-02  1.68976087857162505E-02  1.57509383628778796E-02
  1.46682412399615648E-02  1.36469648781061131E-02  1.26845905683153747E-02
  1.17786375356099642E-02  1.09266667661114952E-02  1.01262845478870787E-02
  9.37514572187308354E-03  8.67095663981006133E-03  8.01147782796800614E-03
  7.39452635760051279E-03  6.81797792483208095E-03  6.27976864429309178E-03
  5.77789656228568527E-03  5.31042289658296800E-03  4.87547301113940533E-03
  4.47123713502933871E-03  4.09597083582886792E-03  3.74799525842842672E-03
  3.42569714090659120E-03  3.12752861962204256E-03  2.85200683609225731E-03
  2.59771335853222667E-03  2.36329343113046882E-03  2.14745506425011341E-03
  1.94896797876572647E-03  1.76666241768674154E-03  1.59942783808697054E-03
  1.44621149615653381E-03  1.30601693797364115E-03  1.17790240840710369E-03
  1.06097918929809920E-03  9.54409878949168252E-04  8.57406624014072955E-04
  7.69229314140521068E-04  6.89183749370771387E-04  6.16619789771933181E-04
  5.50929496215447337E-04  4.91545270659420248E-04  4.37938003713585883E-04
  3.89615236686781722E-04  3.46119344736930067E-04  3.07025747165440733E-04
  2.71941150326254310E-04  2.40501828056925688E-04  2.12371943987911673E-04
  1.87241919549799253E-04  1.64826850978074246E-04  1.44864978113966612E-04
  1.27116207319209333E-04  1.11360690364121600E-04  9.73974607134348800E-05
                              </PP_AEWFC.3>
 <PP_AEWFC.4 type="real" size="   999" l="1" columns="3" label= "0P">
 -1.25962761511075627E-07 -1.28746029689894101E-07 -1.31591174720018133E-07
 -1.34499584359790102E-07 -1.37472678432608869E-07 -1.40511907723281395E-07
 -1.43618755345127222E-07 -1.46794739969953354E-07 -1.50041414269227126E-07
 -1.53360364847117930E-07 -1.56753215197173772E-07 -1.60221626806806913E-07
 -1.63767297590212060E-07 -1.67391963604350509E-07 -1.71097402309572029E-07
 -1.74885430755855348E-07 -1.78757906187561227E-07 -1.82716729906172950E-07
 -1.86763846394863322E-07 -1.90901242976415166E-07 -1.95130953653797697E-07
 -1.99455059225595854E-07 -2.03875686368191184E-07 -2.08395011473457901E-07
 -2.13015261219095421E-07 -2.17738711505834920E-07 -2.22567691519392321E-07
 -2.27504584103827417E-07 -2.32551825002620750E-07 -2.37711907320039393E-07
 -2.42987381075849110E-07 -2.48380853395853094E-07 -2.53894993108051029E-07
 -2.59532529183024349E-07 -2.65296252802744330E-07 -2.71189020848718570E-07
 -2.77213754065059956E-07 -2.83373441352369164E-07 -2.89671140578680289E-07
 -2.96109978586265062E-07 -3.02693156077770468E-07 -3.09423945943761983E-07
 -3.16305697085644996E-07 -3.23341836071933769E-07 -3.30535867139858570E-07
 -3.37891377191788094E-07 -3.45412034240444583E-07 -3.53101592192204226E-07
 -3.60963891267556695E-07 -3.69002860119618344E-07 -3.77222519291252244E-07
 -3.85626980890155973E-07 -3.94220453946489380E-07 -4.03007243292064595E-07
 -4.11991755047293488E-07 -4.21178496285580189E-07 -4.30572079513312919E-07
 -4.40177223776100714E-07 -4.49998757918266112E-07 -4.60041623041905307E-07
 -4.70310874833026068E-07 -4.80811687003834790E-07 -4.91549353100755059E-07
 -5.02529290531823406E-07 -5.13757042244036736E-07 -5.25238280991269123E-07
 -5.36978811212453555E-07 -5.48984573241359499E-07 -5.61261645688017145E-07
 -5.73816249306922691E-07 -5.86654750175825512E-07 -5.99783662956012720E-07
 -6.13209655118014549E-07 -6.26939549426480963E-07 -6.40980329280415222E-07
 -6.55339140556615414E-07 -6.70023297691262803E-07 -6.85040285587381694E-07
 -7.00397765454057137E-07 -7.16103577917341412E-07 -7.32165747591400100E-07
 -7.48592488104605903E-07 -7.65392205292471164E-07 -7.82573503511930673E-07
 -8.00145188889897780E-07 -8.18116274977211012E-07 -8.36495987889356862E-07
 -8.55293770416332200E-07 -8.74519288602033892E-07 -8.94182436082446137E-07
 -9.14293339697898562E-07 -9.34862365890489970E-07 -9.55900125369572711E-07
 -9.77417479644755696E-07 -9.99425547297026016E-07 -1.02193570935915590E-06
 -1.04495961632717303E-06 -1.06850919470498861E-06 -1.09259665303572929E-06
 -1.11723448923573026E-06 -1.14243549773212189E-06 -1.16821277605859611E-06
 -1.19457973244710796E-06 -1.22155009372887862E-06 -1.24913791253312140E-06
 -1.27735757517562253E-06 -1.30622381014643215E-06 -1.33575169624152625E-06
 -1.36595667081749402E-06 -1.39685453859813482E-06 -1.42846148087464515E-06
 -1.46079406439530871E-06 -1.49386925063795817E-06 -1.52770440546354004E-06
 -1.56231730914614501E-06 -1.59772616630296994E-06 -1.63394961612274579E-06
 -1.67100674296163573E-06 -1.70891708725376864E-06 -1.74770065668683409E-06
 -1.78737793744348204E-06 -1.82796990584981662E-06 -1.86949804033204342E-06
 -1.91198433367623118E-06 -1.95545130563538019E-06 -1.99992201572133202E-06
 -2.04542007634391096E-06 -2.09196966631110622E-06 -2.13959554466123559E-06
 -2.18832306483567518E-06 -2.23817818921167098E-06 -2.28918750399369344E-06
 -2.34137823442704200E-06 -2.39477826041733932E-06 -2.44941613254118319E-06
 -2.50532108845188977E-06 -2.56252306969035744E-06 -2.62105273891134441E-06
 -2.68094149753528385E-06 -2.74222150383630480E-06 -2.80492569147831119E-06
 -2.86908778851037922E-06 -2.93474233682746763E-06 -3.00192471211399779E-06
 -3.07067114428344224E-06 -3.14101873842318325E-06 -3.21300549625716007E-06
 -3.28667033814019411E-06 -3.36205312559605208E-06 -3.43919468441330022E-06
 -3.51813682831249757E-06 -3.59892238319949103E-06 -3.68159521201813755E-06
 -3.76620024021875268E-06 -3.85278348185604145E-06 -3.94139206633353266E-06
 -4.03207426580903932E-06 -4.12487952327857096E-06 -4.21985848135507673E-06
 -4.31706301175866994E-06 -4.41654624553753634E-06 -4.51836260403835714E-06
 -4.62256783064056612E-06 -4.72921902327495838E-06 -4.83837466774590719E-06
 -4.95009467187945661E-06 -5.06444040051488779E-06 -5.18147471136123724E-06
 -5.30126199174116933E-06 -5.42386819624167470E-06 -5.54936088529764151E-06
 -5.67780926474011264E-06 -5.80928422632124801E-06 -5.94385838921379165E-06
 -6.08160614255056292E-06 -6.22260368901488372E-06 -6.36692908950828577E-06
 -6.51466230892612267E-06 -6.66588526310008584E-06 -6.82068186685094862E-06
 -6.97913808321081718E-06 -7.14134197388481509E-06 -7.30738375096022814E-06
 -7.47735582993573884E-06 -7.65135288404442084E-06 -7.82947189982913682E-06
 -8.01181223414050774E-06 -8.19847567255857947E-06 -8.38956648934030395E-06
 -8.58519150870232043E-06 -8.78546016761183310E-06 -8.99048458018370886E-06
 -9.20037960377426334E-06 -9.41526290654516078E-06 -9.63525503665292925E-06
 -9.86047949325786554E-06 -1.00910627993930479E-05 -1.03271345763542934E-05
 -1.05688276200010784E-05 -1.08162779791301093E-05 -1.10696250356366801E-05
 -1.13290115864884091E-05 -1.15945839279838209E-05 -1.18664919420771888E-05
 -1.21448891845067215E-05 -1.24299329753990966E-05 -1.27217844921467188E-05
 -1.30206088641779636E-05 -1.33265752704360855E-05 -1.36398570392218305E-05
 -1.39606317501239192E-05 -1.42890813389429306E-05 -1.46253922049170502E-05
 -1.49697553204331133E-05 -1.53223663439296318E-05 -1.56834257349777166E-05
 -1.60531388725488605E-05 -1.64317161762139503E-05 -1.68193732298917042E-05
 -1.72163309092751765E-05 -1.76228155117183747E-05 -1.80390588897633843E-05
 -1.84652985877913059E-05 -1.89017779818134833E-05 -1.93487464231733837E-05
 -1.98064593850684135E-05 -2.02751786134262021E-05 -2.07551722807090574E-05
 -2.12467151441296173E-05 -2.17500887072137887E-05 -2.22655813856589328E-05
 -2.27934886770334704E-05 -2.33341133346768659E-05 -2.38877655458885698E-05
 -2.44547631143127719E-05 -2.50354316469682974E-05 -2.56301047455853000E-05
 -2.62391242028564862E-05 -2.68628402032047007E-05 -2.75016115286498824E-05
 -2.81558057695180343E-05 -2.88257995403378364E-05 -2.95119787010078463E-05
 -3.02147385831795799E-05 -3.09344842224095910E-05 -3.16716305955170834E-05
 -3.24266028642433465E-05 -3.31998366241521975E-05 -3.39917781602658319E-05
 -3.48028847081916312E-05 -3.56336247221362480E-05 -3.64844781490263797E-05
 -3.73559367093482205E-05 -3.82485041849536784E-05 -3.91626967133688571E-05
 -4.00990430897853038E-05 -4.10580850757491449E-05 -4.20403777156761572E-05
 -4.30464896609033035E-05 -4.40770035012808607E-05 -4.51325161052232836E-05
 -4.62136389674063967E-05 -4.73209985651325060E-05 -4.84552367232742254E-05
 -4.96170109876264609E-05 -5.08069950076560017E-05 -5.20258789281177503E-05
 -5.32743697900097351E-05 -5.45531919414466075E-05 -5.58630874579697030E-05
 -5.72048165730312146E-05 -5.85791581189701091E-05 -5.99869099781100468E-05
 -6.14288895448422142E-05 -6.29059341988136116E-05 -6.44189017890683247E-05
 -6.59686711298773963E-05 -6.75561425084853743E-05 -6.91822382046053760E-05
 -7.08479030223716356E-05 -7.25541048350785084E-05 -7.43018351425185820E-05
 -7.60921096416050424E-05 -7.79259688106504205E-05 -7.98044785072618193E-05
 -8.17287305803188582E-05 -8.36998434965086015E-05 -8.57189629816377987E-05
 -8.77872626768542313E-05 -8.99059448103829934E-05 -9.20762408851870319E-05
 -9.42994123825724933E-05 -9.65767514823031887E-05 -9.89095817996370159E-05
 -1.01299259139703423E-04 -1.03747172269290448E-04 -1.06254743706765459E-04
 -1.08823430530412941E-04 -1.11454725205675683E-04 -1.14150156431505265E-04
 -1.16911290006411673E-04 -1.19739729714684741E-04 -1.22637118233199718E-04
 -1.25605138059104772E-04 -1.28645512459006286E-04 -1.31760006440113117E-04
 -1.34950427743840619E-04 -1.38218627862248152E-04 -1.41566503077845095E-04
 -1.44995995527346598E-04 -1.48509094289867076E-04 -1.52107836500091538E-04
 -1.55794308486834960E-04 -1.59570646937679580E-04 -1.63439040090218016E-04
 -1.67401728950471510E-04 -1.71461008539047782E-04 -1.75619229165574741E-04
 -1.79878797732085943E-04 -1.84242179065929472E-04 -1.88711897282935442E-04
 -1.93290537181257526E-04 -1.97980745666738992E-04 -2.02785233210281223E-04
 -2.07706775338067858E-04 -2.12748214155175950E-04 -2.17912459903381420E-04
 -2.23202492553756796E-04 -2.28621363434840171E-04 -2.34172196897027349E-04
 -2.39858192014051868E-04 -2.45682624322238489E-04 -2.51648847598261096E-04
 -2.57760295676267160E-04 -2.64020484304990002E-04 -2.70433013045878442E-04
 -2.77001567212884815E-04 -2.83729919854802280E-04 -2.90621933781012821E-04
 -2.97681563631494665E-04 -3.04912857991855633E-04 -3.12319961554401615E-04
 -3.19907117326019693E-04 -3.27678668883917576E-04 -3.35639062680005598E-04
 -3.43792850394861291E-04 -3.52144691342381815E-04 -3.60699354925831045E-04
 -3.69461723146393805E-04 -3.78436793165225346E-04 -3.87629679919911021E-04
 -3.97045618796444970E-04 -4.06689968357609982E-04 -4.16568213128947623E-04
 -4.26685966443208608E-04 -4.37048973344421332E-04 -4.47663113552600861E-04
 -4.58534404490233162E-04 -4.69669004371516148E-04 -4.81073215355510815E-04
 -4.92753486764454119E-04 -5.04716418368003975E-04 -5.16968763734875392E-04
 -5.29517433652857295E-04 -5.42369499618381508E-04 -5.55532197396783130E-04
 -5.69012930654261913E-04 -5.82819274663169858E-04 -5.96958980081196944E-04
 -6.11439976806111554E-04 -6.26270377907028213E-04 -6.41458483633372306E-04
 -6.57012785502851461E-04 -6.72941970469608788E-04 -6.89254925173659618E-04
 -7.05960740272798407E-04 -7.23068714858582807E-04 -7.40588360956823924E-04
 -7.58529408114613367E-04 -7.76901808074546710E-04 -7.95715739537518471E-04
 -8.14981613015210312E-04 -8.34710075773793391E-04 -8.54912016869418395E-04
 -8.75598572276991313E-04 -8.96781130113874134E-04 -9.18471335958504095E-04
 -9.40681098266339037E-04 -9.63422593883285993E-04 -9.86708273658244922E-04
 -1.01055086815569255E-03 -1.03496339346931059E-03 -1.05995915713791690E-03
 -1.08555176416433329E-03 -1.11175512313869550E-03 -1.13858345246659423E-03
 -1.16605128670354955E-03 -1.19417348299629702E-03 -1.22296522763183928E-03
 -1.25244204269530702E-03 -1.28261979283692115E-03 -1.31351469214942827E-03
 -1.34514331115604692E-03 -1.37752258391021353E-03 -1.41066981520687209E-03
 -1.44460268790657840E-03 -1.47933927037259094E-03 -1.51489802402130771E-03
 -1.55129781098619301E-03 -1.58855790189560333E-03 -1.62669798376505019E-03
 -1.66573816800304176E-03 -1.70569899853136465E-03 -1.74660146001900658E-03
 -1.78846698623044871E-03 -1.83131746848660157E-03 -1.87517526423952650E-03
 -1.92006320575890846E-03 -1.96600460893066884E-03 -2.01302328216668809E-03
 -2.06114353542418815E-03 -2.11039018933436694E-03 -2.16078858443862236E-03
 -2.21236459053114143E-03 -2.26514461610624693E-03 -2.31915561790884068E-03
 -2.37442511058613519E-03 -2.43098117643807728E-03 -2.48885247526498552E-03
 -2.54806825430911425E-03 -2.60865835828792952E-03 -2.67065323951603401E-03
 -2.73408396811248167E-03 -2.79898224229012567E-03 -2.86538039872349676E-03
 -2.93331142299057667E-03 -3.00280896008515725E-03 -3.07390732499511965E-03
 -3.14664151334072620E-03 -3.22104721206998386E-03 -3.29716081020241204E-03
 -3.37501940961899491E-03 -3.45466083588975370E-03 -3.53612364913242746E-03
 -3.61944715489759348E-03 -3.70467141506953179E-03 -3.79183725877850920E-03
 -3.88098629331362676E-03 -3.97216091502929341E-03 -4.06540432023547432E-03
 -4.16076051606249775E-03 -4.25827433129054821E-03 -4.35799142713186923E-03
 -4.45995830795720225E-03 -4.56422233195250601E-03 -4.67083172169413530E-03
 -4.77983557463080872E-03 -4.89128387345733051E-03 -5.00522749636754440E-03
 -5.12171822717030940E-03 -5.24080876525348082E-03 -5.36255273538087385E-03
 -5.48700469730316592E-03 -5.61422015516701949E-03 -5.74425556670370326E-03
 -5.87716835217649749E-03 -6.01301690306737645E-03 -6.15186059048423821E-03
 -6.29375977326391244E-03 -6.43877580574855283E-03 -6.58697104521395720E-03
 -6.73840885892264523E-03 -6.89315363077659584E-03 -7.05127076754390961E-03
 -7.21282670463036131E-03 -7.37788891136769397E-03 -7.54652589578808791E-03
 -7.71880720885271317E-03 -7.89480344810510222E-03 -8.07458626071050171E-03
 -8.25822834585259249E-03 -8.44580345644363288E-03 -8.63738640011785935E-03
 -8.83305303946401756E-03 -9.03288029145906356E-03 -9.23694612605889878E-03
 -9.44532956390584620E-03 -9.65811067310410644E-03 -9.87537056501962274E-03
 -1.00971913890551667E-02 -1.03236563263492034E-02 -1.05548495823498973E-02
 -1.07908563782069585E-02 -1.10317629409309916E-02 -1.12776564922591315E-02
 -1.15286252361712326E-02 -1.17847583449898607E-02 -1.20461459440116877E-02
 -1.23128790945964319E-02 -1.25850497756470909E-02 -1.28627508634194497E-02
 -1.31460761095823012E-02 -1.34351201174585030E-02 -1.37299783163707684E-02
 -1.40307469340135681E-02 -1.43375229667729743E-02 -1.46504041479092548E-02
 -1.49694889135202971E-02 -1.52948763661944938E-02 -1.56266662362684085E-02
 -1.59649588405921215E-02 -1.63098550387090514E-02 -1.66614561863542843E-02
 -1.70198640861691473E-02 -1.73851809355277317E-02 -1.77575092713759437E-02
 -1.81369519119677081E-02 -1.85236118953889355E-02 -1.89175924147615970E-02
 -1.93189967499985855E-02 -1.97279281960064112E-02 -2.01444899871966628E-02
 -2.05687852181910720E-02 -2.10009167605911852E-02 -2.14409871756778211E-02
 -2.18890986229074297E-02 -2.23453527640715376E-02 -2.28098506629740051E-02
 -2.32826926804905396E-02 -2.37639783648538327E-02 -2.42538063370305000E-02
 -2.47522741710217813E-02 -2.52594782689496422E-02 -2.57755137307579263E-02
 -2.63004742183772094E-02 -2.68344518141840106E-02 -2.73775368736035099E-02
 -2.79298178716579429E-02 -2.84913812433301057E-02 -2.90623112175311428E-02
 -2.96426896445267755E-02 -3.02325958166224894E-02 -3.08321062819411247E-02
 -3.14412946511072044E-02 -3.20602313966510608E-02 -3.26889836449517773E-02
 -3.33276149605257338E-02 -3.39761851224774508E-02 -3.46347498929191616E-02
 -3.53033607771631591E-02 -3.59820647755108233E-02 -3.66709041264181024E-02
 -3.73699160408712122E-02 -3.80791324277576573E-02 -3.87985796100473387E-02
 -3.95282780315916876E-02 -4.02682419543406167E-02 -4.10184791457837289E-02
 -4.17789905564374259E-02 -4.25497699871593485E-02 -4.33308037461396373E-02
 -4.41220702953477456E-02 -4.49235398862659480E-02 -4.57351741847349391E-02
 -4.65569258847190054E-02 -4.73887383108167401E-02 -4.82305450093708163E-02
 -4.90822693279858099E-02 -4.99438239832971018E-02 -5.08151106168542172E-02
 -5.16960193389595299E-02 -5.25864282603107705E-02 -5.34862030113399875E-02
 -5.43951962491087612E-02 -5.53132471516433882E-02 -5.62401808996039060E-02
 -5.71758081452001382E-02 -5.81199244682705923E-02 -5.90723098194326918E-02
 -6.00327279502816738E-02 -6.10009258305566626E-02 -6.19766330522672285E-02
 -6.29595612207625305E-02 -6.39494033327409339E-02 -6.49458331412202938E-02
 -6.59485045075324933E-02 -6.69570507403759591E-02 -6.79710839220299540E-02
 -6.89901942218512643E-02 -7.00139491971445843E-02 -7.10418930816428956E-02
 -7.20735460617124707E-02 -7.31084035405641097E-02 -7.41459353907062968E-02
 -7.51855851949285031E-02 -7.62267694761776110E-02 -7.72688769166542389E-02
 -7.83112675665856017E-02 -7.93532720431199406E-02 -8.03941907198491290E-02
 -8.14332929075339274E-02 -8.24698160266258001E-02 -8.35029647722836943E-02
 -8.45319102725766575E-02 -8.55557892406757364E-02 -8.65737031219064451E-02
 -8.75847172365114418E-02 -8.85878599191310678E-02 -8.95821216560140354E-02
 -9.05664542210421336E-02 -9.15397698116691277E-02 -9.25009401860026753E-02
 -9.34487958021820025E-02 -9.43821249613734092E-02 -9.52996729554809602E-02
 -9.62001412209853718E-02 -9.70821865000357220E-02 -9.79444200100350743E-02
 -9.87854066228154304E-02 -9.96036640544887275E-02 -1.00397662066899152E-01
 -1.01165821681487564E-01 -1.01906514406331264E-01 -1.02618061476810338E-01
 -1.03298733110457938E-01 -1.03946747776147430E-01 -1.04560271477961403E-01
 -1.05137417053795812E-01 -1.05676243488987534E-01 -1.06174755245235272E-01
 -1.06630901605373002E-01 -1.07042576034853607E-01 -1.07407615561397177E-01
 -1.07723800174758230E-01 -1.07988852249434442E-01 -1.08200435993989375E-01
 -1.08356156931716366E-01 -1.08453561418374214E-01 -1.08490136203902965E-01
 -1.08463308046066770E-01 -1.08370443385043272E-01 -1.08208848088822307E-01
 -1.07975767280135970E-01 -1.07668385255939650E-01 -1.07283825511031994E-01
 -1.06819150877226945E-01 -1.06271363789292500E-01 -1.05637406688132096E-01
 -1.04914162570939620E-01 -1.04098455696645331E-01 -1.03187052453669451E-01
 -1.02176662395315587E-01 -1.01063939446414078E-01 -9.98454832832218059E-02
 -9.85178408871722339E-02 -9.70775082718762644E-02 -9.55209323821882145E-02
 -9.38445131639787516E-02 -9.20446058035601783E-02 -9.01175231366719148E-02
 -8.80595382281372657E-02 -8.58668871248042254E-02 -8.35357717860715776E-02
 -8.10623631978931170E-02 -7.84428046776095150E-02 -7.56732153782757738E-02
 -7.27496940019727728E-02 -6.96683227324350063E-02 -6.64251713975793773E-02
 -6.30163018728414071E-02 -5.94377727361437291E-02 -5.56856441850389558E-02
 -5.17559832268161060E-02 -4.76448691518945450E-02 -4.33483993005920609E-02
 -3.88626951335824949E-02 -3.41839086158238284E-02 -2.93082289242302396E-02
 -2.42318894889947262E-02 -1.89511753790946799E-02 -1.34624310421385032E-02
 -7.76206840957809931E-03 -1.84657537796061380E-03  4.28747532230920863E-03
  1.06434168593399544E-02  1.72244786213027919E-02  2.40337761152116559E-02
  3.10743004305366402E-02  3.83489072550898327E-02  4.58603054306627525E-02
  5.36110450352931256E-02  6.16035049794307135E-02  6.98398801028817656E-02
  7.83221677595838800E-02  8.70521538771391323E-02  9.60313984783718461E-02
  1.05261220652014931E-01  1.14742682960146031E-01  1.24476575270085044E-01
  1.34463397998759338E-01  1.44703344758048802E-01  1.55196284390024031E-01
  1.65941742381559870E-01  1.76938881648415536E-01  1.88186482679490952E-01
  1.99682923032935444E-01  2.11426156176302310E-01  2.23413689664239024E-01
  2.35642562647931514E-01  2.48109322711764529E-01  2.60810002033796673E-01
  2.73740092867869766E-01  2.86894522346497427E-01  3.00267626605107751E-01
  3.13853124229574620E-01  3.27644089030526553E-01  3.41632922149362639E-01
  3.55811323502530752E-01  3.70170262572075470E-01  3.84699948552046256E-01
  3.99389799861776418E-01  4.14228413038530086E-01  4.29203531023310492E-01
  4.44302010855082918E-01  4.59509790788891759E-01  4.74811856855131276E-01
  4.90192208877896052E-01  5.05633825970364437E-01  5.21118631525751663E-01
  5.36627457722224088E-01  5.52140009559975997E-01  5.67634828448199902E-01
  5.83089255358936964E-01  5.98479393564050222E-01  6.13780070970483149E-01
  6.28964802068213369E-01  6.44005749504440450E-01  6.58873685297180711E-01
  6.73537951701553839E-01  6.87966421742930323E-01  7.02125459433120880E-01
  7.15979879689130905E-01  7.29492907979123362E-01  7.42626139727398327E-01
  7.55339499519811608E-01  7.67591200163423637E-01  7.79337701669521321E-01
  7.90533670247872911E-01  8.01131937422140172E-01  8.11083459402548446E-01
  8.20337276876889732E-01  8.28840475416563804E-01  8.36538146727120346E-01
  8.43373351006596494E-01  8.49287080710606990E-01  8.54218226056302044E-01
  8.58103542626141413E-01  8.60877621452803887E-01  8.62472861973233140E-01
  8.62819448225342955E-01  8.61845328614873174E-01  8.59476199489018655E-01
  8.55635492600911429E-01  8.50244366315758282E-01  8.43221700076154601E-01
  8.34484091196417532E-01  8.23945852492662056E-01  8.11519008600874781E-01
  7.97113288154439603E-01  7.80636108406295492E-01  7.61992548573985462E-01
  7.41085308400368792E-01  7.17814649417139572E-01  6.92078318376803558E-01
  6.63771455322166193E-01  6.32786492552256163E-01  5.99013054734524708E-01
  5.62337873723383730E-01  5.22644733192448530E-01  4.79814457090276036E-01
  4.33724951769023703E-01  3.84251304784683168E-01  3.31265935085814645E-01
  2.74638781527886344E-01  2.14237511443195139E-01  1.49927729823265743E-01
  8.15731727629947501E-02  9.03587503945721057E-03 -6.78236909746766925E-02
 -1.49146501490439426E-01 -2.35074884921598309E-01 -3.25752433821560217E-01
 -4.21323916655031938E-01 -5.21935182788353491E-01 -6.27733056332265393E-01
 -7.38865216525454338E-01 -8.55480063925993184E-01 -9.77726572733235599E-01
 -1.10575413016942781E+00 -1.23971236412845309E+00 -1.37975096035528932E+00
 -1.52601947035874641E+00 -1.67866711110330269E+00 -1.83784255732659041E+00
 -2.00369372712872496E+00 -2.17636756125625608E+00 -2.35600979628610263E+00
 -2.54276473170634620E+00 -2.73677499070018238E+00 -2.93818127426972353E+00
 -3.14712210819369131E+00 -3.36373358219719476E+00 -3.58814908062478732E+00
 -3.82049900384650565E+00 -4.06091047958908558E+00 -4.30950706336821643E+00
 -4.56640842719726869E+00 -4.83173003576028215E+00 -5.10558280926138419E+00
 -5.38807277219202607E+00 -5.67930068729379034E+00 -5.97936167403269359E+00
 -6.28834481094342479E+00 -6.60633272124527338E+00 -6.93340114117755135E+00
 -7.26961847054857380E+00 -7.61504530504397259E+00 -7.96973394989549266E+00
 -8.33372791455888340E+00 -8.70706138811605967E+00 -9.08975869517929169E+00
 -9.48183373214384773E+00 -9.88328938370746712E+00 -1.02941169196540585E+01
 -1.07142953719823222E+01 -1.11437908925455851E+01 -1.15825560914628589E+01
 -1.20305293566532683E+01 -1.24876341549458321E+01 -1.29537783153131176E+01
 -1.34288532948751289E+01 -1.39127334284183561E+01 -1.44052751622631696E+01
 -1.49063162734025205E+01 -1.54156750749086768E+01 -1.59331496086586242E+01
 -1.64585168265363926E+01 -1.69915317612063603E+01 -1.75319266876123230E+01
 -1.80794102764186633E+01 -1.86336667404426031E+01 -1.91943549751738054E+01
 -1.97611076943119315E+01 -2.03335305611831991E+01 -2.09112013167562374E+01
 -2.14936689048040748E+01 -2.20804525945943020E+01 -2.26710411013139215E+01
 -2.32648917042641408E+01 -2.38614293627158531E+01 -2.44600458292164582E+01
 -2.50600987600503444E+01 -2.56609108226424638E+01 -2.62617687997709623E+01
 -2.68619226907321149E+01 -2.74605848099921417E+01 -2.80569288844317164E+01
 -2.86500891510362656E+01 -2.92391594578422129E+01 -2.98231923721081991E+01
 -3.04011983010536575E+01 -3.09721446320936202E+01 -3.15349549012770218E+01
 -3.20885080006034187E+01 -3.26316374370114488E+01 -3.31631306580846754E+01
 -3.36817284618927744E+01 -3.41861245106907532E+01 -3.46749649706342709E+01
 -3.51468483021270615E+01 -3.56003252275965067E+01 -3.60338989056678543E+01
 -3.64460253426824821E+01 -3.68351140742533829E+01 -3.71995291510312782E+01
 -3.75375904640239710E+01 -3.78475754456271218E+01 -3.81277211829486902E+01
 -3.83762269800001903E+01 -3.85912574048545665E+01 -3.87709458568962120E+01
 -3.89133986877866960E+01 -3.90166999077160455E+01 -3.90789165058859638E+01
 -3.90981044109725673E+01 -3.90723151135394318E+01 -3.89996029680367755E+01
 -3.88780331871551539E+01 -3.87056905359475394E+01 -3.84806887273551723E+01
 -3.82011805146481507E+01 -3.78653684700290967E+01 -3.74715164319233835E+01
 -3.70179615966651880E+01 -3.65031272246598846E+01 -3.59255359242792736E+01
 -3.52838234709433678E+01 -3.45767531134018782E+01 -3.38032303142671395E+01
 -3.29623178674523558E+01 -3.20532513313346286E+01 -3.10754547131822605E+01
 -3.00285563375866751E+01 -2.89124048292188469E+01 -2.77270851380690964E+01
 -2.64729345332338006E+01 -2.51505584891333953E+01 -2.37608463855503906E+01
 -2.23049869398904512E+01 -2.07844832863921525E+01 -1.92011676124576987E+01
 -1.75572152567178961E+01 -1.58551581667394128E+01 -1.40978976063712018E+01
 -1.22887159935468997E+01 -1.04312877389250218E+01 -8.52968894412408929E+00
 -6.58840580542189524E+00 -4.61234155502576293E+00 -2.60682175773315628E+00
 -5.77597765172975119E-01  1.46915188577699385E+00  3.52682235957385126E+00
  5.58838593841472786E+00  7.64639822839735483E+00  9.69300742963167217E+00
  1.17199669574620806E+01  1.37186517131969818E+01  1.56800783117847669E+01
  1.75949295801833685E+01  1.94535836432084004E+01  2.12461479127867818E+01
  2.29624982911703341E+01  2.45923238880945760E+01  2.61251775353568725E+01
  2.75505323591316476E+01  2.88578446396965980E+01  3.00366231493676210E+01
  3.10765051114735940E+01  3.19673388653443915E+01  3.26992732537501638E+01
  3.32628536696636772E+01  3.36491246077787167E+01  3.38497384552990965E+01
  3.38570701465644746E+01  3.36643371707600565E+01  3.32657242752456881E+01
  3.26565120479853306E+01  3.18332083893202515E+01  3.07936816971824143E+01
  2.95372943917998008E+01  2.80650351974476280E+01  2.63796483817837846E+01
  2.44857579302931008E+01  2.23899844074496492E+01  2.01010520312225438E+01
  1.76298832680138915E+01  1.49896780463845065E+01  1.21959744961429468E+01
  9.26668795157135960E+00  6.22212482163112224E+00  3.08496783469790570E+00
 -1.19770879696772858E-01 -3.36483239417547653E+00 -6.62083270686388303E+00
 -9.85642684967381832E+00 -1.30385183817387098E+01 -1.61325168991095111E+01
 -1.91026456935040514E+01 -2.19123010782056937E+01 -2.45244641430219481E+01
 -2.69021647909599295E+01 -2.90089968502238662E+01 -3.08096818389828684E+01
 -3.22706775883530170E+01 -3.33608264063263391E+01 -3.40520358024508241E+01
 -3.43199830067537093E+01 -3.41448326306142818E+01 -3.35119548640752924E+01
 -3.24126296242617684E+01 -3.08447201135649962E+01 -2.88132973744638292E+01
 -2.63311957110542778E+01 -2.34194773665115648E+01 -2.01077836916092529E+01
 -1.64345493116406161E+01 -1.24470556045163807E+01 -8.20130025335971524E+00
                              </PP_AEWFC.4>
 <PP_PSWFC.1 type="real" size="   999" l="0" columns="3" label= "3S">
  7.29342161778644718E-05  7.38516156793143425E-05  7.47805546458449848E-05
  7.57211782260551458E-05  7.66736333942882745E-05  7.76380689735971425E-05
  7.86146356589979622E-05  7.96034860410167907E-05  8.06047746295319762E-05
  8.16186578779169280E-05  8.26452942074858940E-05  8.36848440322478140E-05
  8.47374697839712579E-05  8.58033359375647177E-05  8.68826090367763463E-05
  8.79754577202163541E-05  8.90820527477073778E-05  9.02025670269660315E-05
  9.13371756406198968E-05  9.24860558735649522E-05  9.36493872406661662E-05
  9.48273515148073659E-05  9.60201327552934718E-05  9.72279173366101930E-05
  9.84508939775455630E-05  9.96892537706771885E-05  1.00943190212231286E-04
  1.02212899232316556E-04  1.03498579225538685E-04  1.04800431082000255E-04
  1.06118658218689585E-04  1.07453466611265511E-04  1.08805064826241271E-04
  1.10173664053573458E-04  1.11559478139661091E-04  1.12962723620759145E-04
  1.14383619756812919E-04  1.15822388565717935E-04  1.17279254858010428E-04
  1.18754446271994899E-04  1.20248193309312396E-04  1.21760729370957307E-04
  1.23292290793746475E-04  1.24843116887247328E-04  1.26413449971170727E-04
  1.28003535413233457E-04  1.29613621667497585E-04  1.31243960313191940E-04
  1.32894806094021711E-04  1.34566416957972976E-04  1.36259054097616995E-04
  1.37972981990922483E-04  1.39708468442580649E-04  1.41465784625850039E-04
  1.43245205124928451E-04  1.45047007977856422E-04  1.46871474719961607E-04
  1.48718890427849233E-04  1.50589543763945645E-04  1.52483727021602883E-04
  1.54401736170769229E-04  1.56343870904235641E-04  1.58310434684463087E-04
  1.60301734790999106E-04  1.62318082368491287E-04  1.64359792475303278E-04
  1.66427184132743935E-04  1.68520580374914732E-04  1.70640308299184338E-04
  1.72786699117298689E-04  1.74960088207132643E-04  1.77160815165093810E-04
  1.79389223859185217E-04  1.81645662482734713E-04  1.83930483608801885E-04
  1.86244044245267024E-04  1.88586705890614868E-04  1.90958834590419259E-04
  1.93360800994538308E-04  1.95792980415029623E-04  1.98255752884792533E-04
  2.00749503216949513E-04  2.03274621064973788E-04  2.05831500983573245E-04
  2.08420542490340695E-04  2.11042150128178460E-04  2.13696733528509399E-04
  2.16384707475282263E-04  2.19106491969782484E-04  2.21862512296258472E-04
  2.24653199088372150E-04  2.27478988396486625E-04  2.30340321755799813E-04
  2.33237646255334853E-04  2.36171414607799101E-04  2.39142085220319999E-04
  2.42150122266072975E-04  2.45195995756808795E-04  2.48280181616293539E-04
  2.51403161754673327E-04  2.54565424143771970E-04  2.57767462893338406E-04
  2.61009778328251873E-04  2.64292877066698141E-04  2.67617272099330368E-04
  2.70983482869423026E-04  2.74392035354036740E-04  2.77843462146202874E-04
  2.81338302538141575E-04  2.84877102605527810E-04  2.88460415292815151E-04
  2.92088800499634975E-04  2.95762825168281501E-04  2.99483063372296796E-04
  3.03250096406171537E-04  3.07064512876171992E-04  3.10926908792310771E-04
  3.14837887661474430E-04  3.18798060581721788E-04  3.22808046337769833E-04
  3.26868471497677776E-04  3.30979970510750666E-04  3.35143185806671792E-04
  3.39358767895883544E-04  3.43627375471230979E-04  3.47949675510881944E-04
  3.52326343382544107E-04  3.56758062948991494E-04  3.61245526674919119E-04
  3.65789435735141427E-04  3.70390500124150436E-04  3.75049438767054285E-04
  3.79766979631909524E-04  3.84543859843466387E-04  3.89380825798345492E-04
  3.94278633281664056E-04  3.99238047585125674E-04  4.04259843626599480E-04
  4.09344806071200906E-04  4.14493729453896040E-04  4.19707418303649923E-04
  4.24986687269132094E-04  4.30332361246007513E-04  4.35745275505827214E-04
  4.41226275826538713E-04  4.46776218624641089E-04  4.52395971088998298E-04
  4.58086411316339459E-04  4.63848428448460949E-04  4.69682922811154985E-04
  4.75590806054887786E-04  4.81573001297241996E-04  4.87630443267156343E-04
  4.93764078450976127E-04  4.99974865240342191E-04  5.06263774081940868E-04
  5.12631787629133293E-04  5.19079900895497940E-04  5.25609121410300015E-04
  5.32220469375917497E-04  5.38914977827249222E-04  5.45693692793124282E-04
  5.52557673459745289E-04  5.59507992336184248E-04  5.66545735421962807E-04
  5.73672002376740412E-04  5.80887906692132490E-04  5.88194575865694756E-04
  5.95593151577093706E-04  6.03084789866492567E-04  6.10670661315183719E-04
  6.18351951228487962E-04  6.26129859820959123E-04  6.34005602403916340E-04
  6.41980409575333396E-04  6.50055527412122191E-04  6.58232217664825965E-04
  6.66511757954768450E-04  6.74895441973680536E-04  6.83384579685836213E-04
  6.91980497532734980E-04  7.00684538640352836E-04  7.09498063029005330E-04
  7.18422447825847505E-04  7.27459087480046823E-04  7.36609393980665415E-04
  7.45874797077275596E-04  7.55256744503359509E-04  7.64756702202510773E-04
  7.74376154557485639E-04  7.84116604622135628E-04  7.93979574356251682E-04
  8.03966604863369278E-04  8.14079256631558665E-04  8.24319109777247954E-04
  8.34687764292112210E-04  8.45186840293063045E-04  8.55817978275388684E-04
  8.66582839369074319E-04  8.77483105598347857E-04  8.88520480144491072E-04
  8.99696687611950194E-04  9.11013474297801785E-04  9.22472608464602081E-04
  9.34075880616670002E-04  9.45825103779847636E-04  9.57722113784771037E-04
  9.69768769553713697E-04  9.81966953391031402E-04  9.94318571277261936E-04
  1.00682555316692615E-03  1.01948985329006724E-03  1.03231345045759156E-03
  1.04529834837044215E-03  1.05844657593266527E-03  1.07176018756841604E-03
  1.08524126354294162E-03  1.09889191028761206E-03  1.11271426072903352E-03
  1.12671047462230083E-03  1.14088273888844562E-03  1.15523326795611875E-03
  1.16976430410758179E-03  1.18447811782904002E-03  1.19937700816538867E-03
  1.21446330307941751E-03  1.22973935981552838E-03  1.24520756526803758E-03
  1.26087033635409831E-03  1.27673012039132279E-03  1.29278939548014941E-03
  1.30905067089101502E-03  1.32551648745640217E-03  1.34218941796781480E-03
  1.35907206757774290E-03  1.37616707420669263E-03  1.39347710895531716E-03
  1.41100487652174754E-03  1.42875311562416438E-03  1.44672459942868218E-03
  1.46492213598262036E-03  1.48334856865321545E-03  1.50200677657185496E-03
  1.52089967508389637E-03  1.54003021620414591E-03  1.55940138907805642E-03
  1.57901622044873732E-03  1.59887777512982389E-03  1.61898915648430093E-03
  1.63935350690935008E-03  1.65997400832728248E-03  1.68085388268265890E-03
  1.70199639244564727E-03  1.72340484112172110E-03  1.74508257376776118E-03
  1.76703297751464364E-03  1.78925948209641018E-03  1.81176556038607729E-03
  1.83455472893819449E-03  1.85763054853822361E-03  1.88099662475881327E-03
  1.90465660852308827E-03  1.92861419667499849E-03  1.95287313255685779E-03
  1.97743720659413792E-03  2.00231025688760731E-03  2.02749616981292820E-03
  2.05299888062778152E-03  2.07882237408662986E-03  2.10497068506321000E-03
  2.13144789918084639E-03  2.15825815345069890E-03  2.18540563691802013E-03
  2.21289459131654995E-03  2.24072931173113386E-03  2.26891414726866549E-03
  2.29745350173747283E-03  2.32635183433523322E-03  2.35561366034554766E-03
  2.38524355184326813E-03  2.41524613840868319E-03  2.44562610785069691E-03
  2.47638820693907909E-03  2.50753724214593503E-03  2.53907808039648998E-03
  2.57101564982930436E-03  2.60335494056606167E-03  2.63610100549100659E-03
  2.66925896104019912E-03  2.70283398800068688E-03  2.73683133231970811E-03
  2.77125630592408223E-03  2.80611428754988079E-03  2.84141072358253888E-03
  2.87715112890752321E-03  2.91334108777167476E-03  2.94998625465539956E-03
  2.98709235515579822E-03  3.02466518688090501E-03  3.06271062035516281E-03
  3.10123459993626518E-03  3.14024314474353533E-03  3.17974234959795318E-03
  3.21973838597400209E-03  3.26023750296347906E-03  3.30124602825139545E-03
  3.34277036910416185E-03  3.38481701337016699E-03  3.42739253049293693E-03
  3.47050357253702408E-03  3.51415687522676698E-03  3.55835925899812035E-03
  3.60311763006367688E-03  3.64843898149107325E-03  3.69433039429495477E-03
  3.74079903854262043E-03  3.78785217447359353E-03  3.83549715363321444E-03
  3.88374142002049973E-03  3.93259251125039830E-03  3.98205805973064070E-03
  4.03214579385337713E-03  4.08286353920176304E-03  4.13421921977169971E-03
  4.18622085920892107E-03  4.23887658206159069E-03  4.29219461504864053E-03
  4.34618328834402833E-03  4.40085103687709936E-03  4.45620640164929704E-03
  4.51225803106736125E-03  4.56901468229329449E-03  4.62648522261125458E-03
  4.68467863081157860E-03  4.74360399859221835E-03  4.80327053197771286E-03
  4.86368755275598617E-03  4.92486449993318441E-03  4.98681093120671368E-03
  5.04953652445681682E-03  5.11305107925680985E-03  5.17736451840227537E-03
  5.24248688945944986E-03  5.30842836633298957E-03  5.37519925085343676E-03
  5.44280997438455205E-03  5.51127109945082072E-03  5.58059332138535844E-03
  5.65078746999845161E-03  5.72186451126704184E-03  5.79383554904536018E-03
  5.86671182679700167E-03  5.94050472934871347E-03  6.01522578466613580E-03
  6.09088666565181514E-03  6.16749919196570105E-03  6.24507533186849286E-03
  6.32362720408802780E-03  6.40316707970905400E-03  6.48370738408668781E-03
  6.56526069878378329E-03  6.64783976353258612E-03  6.73145747822092699E-03
  6.81612690490326738E-03  6.90186126983692496E-03  6.98867396554374385E-03
  7.07657855289759146E-03  7.16558876323794818E-03  7.25571850050990563E-03
  7.34698184343098200E-03  7.43939304768496089E-03  7.53296654814319174E-03
  7.62771696111366748E-03  7.72365908661814052E-03  7.82080791069777841E-03
  7.91917860774754567E-03  8.01878654287977582E-03  8.11964727431726922E-03
  8.22177655581622820E-03  8.32519033911949258E-03  8.42990477644033585E-03
  8.53593622297728512E-03  8.64330123946033257E-03  8.75201659472883697E-03
  8.86209926834167008E-03  8.97356645321979209E-03  9.08643555832186478E-03
  9.20072421135315587E-03  9.31645026150818185E-03  9.43363178224755801E-03
  9.55228707410937794E-03  9.67243466755561380E-03  9.79409332585397079E-03
  9.91728204799552197E-03  1.00420200716487308E-02  1.01683268761501317E-02
  1.02962221855322101E-02  1.04257259715889745E-02  1.05568584569794861E-02
  1.06896401183700883E-02  1.08240916896155184E-02  1.09602341649795865E-02
  1.10980888023957894E-02  1.12376771267683612E-02  1.13790209333142576E-02
  1.15221422909465732E-02  1.16670635456998777E-02  1.18138073241979454E-02
  1.19623965371644554E-02  1.21128543829771250E-02  1.22652043512657821E-02
  1.24194702265549555E-02  1.25756760919514838E-02  1.27338463328776491E-02
  1.28940056408504439E-02  1.30561790173074569E-02  1.32203917774799500E-02
  1.33866695543137272E-02  1.35550383024382638E-02  1.37255243021847592E-02
  1.38981541636536560E-02  1.40729548308321916E-02  1.42499535857625436E-02
  1.44291780527612719E-02  1.46106562026905324E-02  1.47944163572817054E-02
  1.49804871935120994E-02  1.51688977480352507E-02  1.53596774216655640E-02
  1.55528559839177866E-02  1.57484635776020294E-02  1.59465307234750026E-02
  1.61470883249479717E-02  1.63501676728522935E-02  1.65558004502629579E-02
  1.67640187373810055E-02  1.69748550164753251E-02  1.71883421768846030E-02
  1.74045135200800692E-02  1.76234027647897175E-02  1.78450440521847158E-02
  1.80694719511286551E-02  1.82967214634903730E-02  1.85268280295211030E-02
  1.87598275332964970E-02  1.89957563082244728E-02  1.92346511426193904E-02
  1.94765492853434113E-02  1.97214884515157507E-02  1.99695068282905105E-02
  2.02206430807039018E-02  2.04749363575915458E-02  2.07324262975766282E-02
  2.09931530351296670E-02  2.12571572067006727E-02  2.15244799569243722E-02
  2.17951629448993982E-02  2.20692483505420672E-02  2.23467788810156817E-02
  2.26277977772360271E-02  2.29123488204537734E-02  2.32004763389148626E-02
  2.34922252145991946E-02  2.37876408900389753E-02  2.40867693752169557E-02
  2.43896572545457962E-02  2.46963516939290618E-02  2.50069004479048194E-02
  2.53213518668725622E-02  2.56397549044042466E-02  2.59621591246403348E-02
  2.62886147097714656E-02  2.66191724676067658E-02  2.69538838392294616E-02
  2.72928009067406364E-02  2.76359764010919058E-02  2.79834637100078581E-02
  2.83353168859989436E-02  2.86915906544658109E-02  2.90523404218956081E-02
  2.94176222841512729E-02  2.97874930348544127E-02  3.01620101738626772E-02
  3.05412319158422825E-02  3.09252171989365839E-02  3.13140256935312972E-02
  3.17077178111172323E-02  3.21063547132511770E-02  3.25099983206158655E-02
  3.29187113221794045E-02  3.33325571844552138E-02  3.37516001608629754E-02
  3.41759053011913699E-02  3.46055384611631128E-02  3.50405663121032690E-02
  3.54810563507110474E-02  3.59270769089361092E-02  3.63786971639597639E-02
  3.68359871482815682E-02  3.72990177599122827E-02  3.77678607726731341E-02
  3.82425888466025252E-02  3.87232755384701588E-02  3.92099953123994649E-02
  3.97028235505983915E-02  4.02018365641993516E-02  4.07071116042084027E-02
  4.12187268725641084E-02  4.17367615333064934E-02  4.22612957238562501E-02
  4.27924105664043847E-02  4.33301881794127056E-02  4.38747116892250905E-02
  4.44260652417898111E-02  4.49843340144928799E-02  4.55496042281023361E-02
  4.61219631588237686E-02  4.67014991504665980E-02  4.72883016267211520E-02
  4.78824611035463671E-02  4.84840692016676109E-02  4.90932186591847078E-02
  4.97100033442891831E-02  5.03345182680907249E-02  5.09668595975520874E-02
  5.16071246685318175E-02  5.22554119989340274E-02  5.29118213019645553E-02
  5.35764534994923394E-02  5.42494107355154173E-02  5.49307963897299120E-02
  5.56207150912012560E-02  5.63192727321361539E-02  5.70265764817537088E-02
  5.77427348002544569E-02  5.84678574528853731E-02  5.92020555240992050E-02
  5.99454414318060513E-02  6.06981289417151959E-02  6.14602331817649394E-02
  6.22318706566379748E-02  6.30131592623598552E-02  6.38042183009777247E-02
  6.46051684953164451E-02  6.54161320038091632E-02  6.62372324353987380E-02
  6.70685948645068364E-02  6.79103458460671022E-02  6.87626134306179027E-02
  6.96255271794513214E-02  7.04992181798134998E-02  7.13838190601518291E-02
  7.22794640054044424E-02  7.31862887723262329E-02  7.41044307048467216E-02
  7.50340287494536684E-02  7.59752234705964313E-02  7.69281570661030228E-02
  7.78929733826040221E-02  7.88698179309564179E-02  7.98588379016603178E-02
  8.08601821802602816E-02  8.18740013627240609E-02  8.29004477707894344E-02
  8.39396754672709217E-02  8.49918402713168153E-02  8.60570997736068155E-02
  8.71356133514801373E-02  8.82275421839834179E-02  8.93330492668272941E-02
  9.04522994272400210E-02  9.15854593387056409E-02  9.27326975355743238E-02
  9.38941844275313076E-02  9.50700923139105453E-02  9.62605953978385442E-02
  9.74658698001929641E-02  9.86860935733604311E-02  9.99214467147766655E-02
  1.01172111180231825E-01  1.02438270896922839E-01  1.03720111776233970E-01
  1.05017821726226132E-01  1.06331590663813716E-01  1.07661610526608928E-01
  1.09008075284409811E-01  1.10371180950309900E-01  1.11751125591404807E-01
  1.13148109339070393E-01  1.14562334398787047E-01  1.15994005059481597E-01
  1.17443327702359449E-01  1.18910510809196845E-01  1.20395764970062324E-01
  1.21899302890435601E-01  1.23421339397690191E-01  1.24962091446905343E-01
  1.26521778125971041E-01  1.28100620659948289E-01  1.29698842414645854E-01
  1.31316668899373185E-01  1.32954327768826430E-01  1.34612048824064579E-01
  1.36290064012529299E-01  1.37988607427062315E-01  1.39707915303869445E-01
  1.41448226019381645E-01  1.43209780085959415E-01  1.44992820146385037E-01
  1.46797590967086389E-01  1.48624339430031810E-01  1.50473314523235119E-01
  1.52344767329806480E-01  1.54238951015482961E-01  1.56156120814569088E-01
  1.58096534014217305E-01  1.60060449936972660E-01  1.62048129921505801E-01
  1.64059837301454570E-01  1.66095837382290834E-01  1.68156397416127562E-01
  1.70241786574376802E-01  1.72352275918167347E-01  1.74488138366425627E-01
  1.76649648661521858E-01  1.78837083332378882E-01  1.81050720654937880E-01
  1.83290840609870720E-01  1.85557724837426136E-01  1.87851656589291371E-01
  1.90172920677348506E-01  1.92521803419198140E-01  1.94898592580322244E-01
  1.97303577312748807E-01  1.99737048090081720E-01  2.02199296638749082E-01
  2.04690615865323333E-01  2.07211299779757580E-01  2.09761643414379528E-01
  2.12341942738479089E-01  2.14952494568318830E-01  2.17593596472392764E-01
  2.20265546671752299E-01  2.22968643935211375E-01  2.25703187469239425E-01
  2.28469476802341476E-01  2.31267811663721790E-01  2.34098491856017221E-01
  2.36961817121883883E-01  2.39858087004210435E-01  2.42787600699727546E-01
  2.45750656905773329E-01  2.48747553659969228E-01  2.51778588172553053E-01
  2.54844056651108430E-01  2.57944254117422500E-01  2.61079474216194929E-01
  2.64250009015316423E-01  2.67456148797423132E-01  2.70698181842428554E-01
  2.73976394200725115E-01  2.77291069456738926E-01  2.80642488482513830E-01
  2.84030929180993208E-01  2.87456666218655899E-01  2.90919970747161416E-01
  2.94421110113640527E-01  2.97960347559271588E-01  3.01537941905761719E-01
  3.05154147229354300E-01  3.08809212521968024E-01  3.12503381339068464E-01
  3.16236891433863465E-01  3.20009974377406747E-01  3.23822855164183798E-01
  3.27675751802749105E-01  3.31568874890974086E-01  3.35502427175457862E-01
  3.39476603094647167E-01  3.43491588305204376E-01  3.47547559191155209E-01
  3.51644682355342797E-01  3.55783114092710073E-01  3.59962999844924914E-01
  3.64184473635861372E-01  3.68447657487443347E-01  3.72752660815357850E-01
  3.77099579804137885E-01  3.81488496761119844E-01  3.85919479448773806E-01
  3.90392580394911315E-01  3.94907836180272087E-01  3.99465266702999089E-01
  4.04064874419512554E-01  4.08706643561300043E-01  4.13390539327149087E-01
  4.18116507050357245E-01  4.22884471340464363E-01  4.27694335199062747E-01
  4.32545979109264345E-01  4.37439260098413829E-01  4.42374010773660675E-01
  4.47350038330025401E-01  4.52367123530617754E-01  4.57425019658698584E-01
  4.62523451441302191E-01  4.67662113944179891E-01  4.72840671437854632E-01
  4.78058756234628179E-01  4.83315967496423027E-01  4.88611870013396621E-01
  4.93945992953319535E-01  4.99317828581769929E-01  5.04726830953264982E-01
  5.10172414573519362E-01  5.15653953033100798E-01  5.21170777612831593E-01
  5.26722175861383701E-01  5.32307390145603243E-01  5.37925616174207422E-01
  5.43576001495613248E-01  5.49257643970767484E-01  5.54969590221984665E-01
  5.60710834058941843E-01  5.66480314883081371E-01  5.72276916071882247E-01
  5.78099463344602937E-01  5.83946723111268606E-01  5.89817400806865288E-01
  5.95710139212894063E-01  6.01623516768651556E-01  6.07556045874817929E-01
  6.13506171192159111E-01  6.19472267938401822E-01  6.25452640186584419E-01
  6.31445519168460256E-01  6.37449061586806143E-01  6.43461347940781803E-01
  6.49480380868797003E-01  6.55504083513650859E-01  6.61530297915052912E-01
  6.67556783434974488E-01  6.73581215221632834E-01  6.79601182718292507E-01
  6.85614188223438670E-01  6.91617645509286949E-01  6.97608878505983965E-01
  7.03585120059284752E-01  7.09543510769917174E-01  7.15481097923311937E-01
  7.21394834518672368E-01  7.27281578406979268E-01  7.33138091547938742E-01
  7.38961039396294650E-01  7.44746990428392319E-01  7.50492415820345093E-01
  7.56193689289592852E-01  7.61847087112076160E-01  7.67448788327691367E-01
  7.72994875147080096E-01  7.78481333573212253E-01  7.83904054251575722E-01
  7.89258833563118767E-01  7.94541374974394476E-01  7.99747290659595267E-01
  8.04872103409382755E-01  8.09911248841551301E-01  8.14860077928643789E-01
  8.19713859857648330E-01  8.24467785236809858E-01  8.29116969664423831E-01
  8.33656457674191720E-01  8.38081227071305612E-01  8.42386193672911676E-01
  8.46566216465955979E-01  8.50616103194569151E-01  8.54530616387767283E-01
  8.58304479837684986E-01  8.61932385536789303E-01  8.65409001080870266E-01
  8.68728977542777336E-01  8.71886957819690944E-01  8.74877585454314155E-01
  8.77695513927607140E-01  8.80335416417635019E-01  8.82791996015690139E-01
  8.85059996387062120E-01  8.87134212859676530E-01  8.89009503919229616E-01
  8.90680803084462069E-01  8.92143131130734512E-01  8.93391608624167555E-01
  8.94421468722190305E-01  8.95228070189435843E-01  8.95806910570516979E-01
  8.96153639453274198E-01  8.96264071747633340E-01  8.96134200896235633E-01
  8.95760211923497640E-01  8.95138494219765657E-01  8.94265653946786254E-01
  8.93138525939503158E-01  8.91754184968081676E-01  8.90109956212413178E-01
  8.88203424789006268E-01  8.86032444157941579E-01  8.83595143225090252E-01
  8.80889931942266280E-01  8.77915505195497881E-01  8.74670844759355193E-01
  8.71155219083350807E-01  8.67368180665118560E-01  8.63309560754477290E-01
  8.58979461122933441E-01  8.54378242624876272E-01  8.49506510270002790E-01
  8.44365094521680071E-01  8.38955028533414526E-01  8.33277521035683866E-01
  8.27333924588627090E-01  8.21125698922844038E-01  8.14654369101424636E-01
  8.07921478251809377E-01  8.00928534636751954E-01  7.93676952860149720E-01
  7.86167989035939097E-01  7.78402669788320623E-01  7.70381715003262135E-01
  7.62105454301277185E-01  7.53573737270298416E-01  7.44785837572948695E-01
  7.35740351128255754E-01  7.26435088664872830E-01  7.16866963047482764E-01
  7.07032928670063066E-01  6.96940597893427882E-01  6.86604572203426522E-01
  6.76039680437487522E-01  6.65260848584926179E-01  6.54283071394414439E-01
  6.43121384366989179E-01  6.31790836196091887E-01  6.20306461708962420E-01
  6.08683255358606679E-01  5.96936145310647537E-01  5.85079968148022878E-01
  5.73129444285953138E-01  5.61099154102339348E-01  5.49003514683147675E-01
  5.36856757423550768E-01  5.24672906364559655E-01  5.12465757311618031E-01
  5.00248857752376708E-01  4.88035487580126992E-01  4.75838640629107523E-01
  4.63671007029605620E-01  4.51544956388604091E-01  4.39472521801634597E-01
  4.27465384702100215E-01  4.15534860555587693E-01  4.03691885408534512E-01
  3.91947003302981323E-01  3.80310354572134246E-01  3.68791665034536864E-01
  3.57400236108011249E-01  3.46144935867896852E-01  3.35034191077114019E-01
  3.24075980218286097E-01  3.13277827560026034E-01  3.02646798290595320E-01
  2.92189494752157164E-01  2.81912053807558460E-01  2.71820145369099098E-01
  2.61918972114754844E-01  2.52213270412084967E-01  2.42707312463412511E-01
  2.33404909677801559E-01  2.24309417267919198E-01  2.15423740058990065E-01
  2.06750339486482526E-01  1.98291241750340991E-01  1.90048047082860577E-01
  1.82021940077365052E-01  1.74213701015552919E-01  1.66623718122904801E-01
  1.59252000674058231E-01  1.52098192863767745E-01  1.45161588353997534E-01
  1.38441145404033350E-01  1.31935502488131379E-01  1.25642994304249939E-01
  1.19561668077725919E-01  1.13689300065313220E-01  1.08023412167726637E-01
  1.02561288562548480E-01  9.72999922740588191E-02  9.22363816020276284E-02
  8.73671263376551571E-02  8.26887237015701687E-02  7.81975139459264168E-02
  7.38896955700871216E-02  6.97613401075814626E-02  6.58084064485184028E-02
  6.20267546679357101E-02  5.84121593423146679E-02  5.49603223401866764E-02
  5.16668850798897711E-02  4.85274402536706242E-02  4.55375430226190522E-02
  4.26927216915036142E-02  3.99884878762867477E-02  3.74203461799827858E-02
  3.49838033944945906E-02  3.26743772471621702E-02  3.04876047110469242E-02
  2.84190498974570931E-02  2.64643115480734555E-02  2.46190301422919908E-02
  2.28788946332525410E-02  2.12396488235794371E-02  1.96970973892588823E-02
  1.82471115574808010E-02  1.68856344417773821E-02  1.56086860355336508E-02
  1.44123678629966227E-02  1.32928672853543182E-02  1.22464614587077872E-02
  1.12695209397718921E-02  1.03585129326899811E-02  9.51000417541955981E-03
  8.72066346170346368E-03  7.98726379595664053E-03  7.30668418002137447E-03
  6.67591103236592123E-03  6.09203924212722674E-03  5.55227286234711778E-03
  5.05392544877629295E-03  4.59442005265816873E-03  4.17128887790000572E-03
  3.78217261495198158E-03  3.42481946550027110E-03  3.09708387371205153E-03
  2.79692498121778032E-03  2.52240482426208329E-03  2.27168629249099039E-03
  2.04303086965501287E-03  1.83479617710360270E-03  1.64543334131982762E-03
  1.47348420690873944E-03  1.31757841641613575E-03  1.17643037812669446E-03
  1.04883614267499816E-03  9.33670208792896110E-04  8.29882276780787519E-04
  7.36493969285824087E-04  6.52595537034732177E-04  5.77342566076000097E-04
  5.09952702146725459E-04  4.49702406631428248E-04  3.95923757391626748E-04
  3.48001306532566492E-04  3.05369005950090677E-04  2.67507210279470213E-04
  2.33939765661168674E-04  2.04231191555682073E-04  1.77983961691062850E-04
  1.54835889119922087E-04  1.34457619305180181E-04  1.16550234151103075E-04
  1.00842968953146825E-04  8.70910433605237864E-05  7.50736066319871608E-05
  6.45917967198270804E-05  5.54669120403575644E-05  4.75386941816153256E-05
  4.06637192596414907E-05  3.47138951692624036E-05  2.95750615850599486E-05
  2.51456890907056637E-05  2.13356737451054637E-05  1.80652230696772257E-05
  1.52638292342575025E-05  1.28693251248543308E-05  1.08270189001408635E-05
  9.08890260940873063E-06  7.61293044885739799E-06  6.36236227163798553E-06
  5.30516803600955467E-06  4.41348897151396613E-06  3.66315136145380382E-06
  3.03322897761791647E-06  2.50565035672000968E-06  2.06484727419018206E-06
  1.69744094680484174E-06  1.39196267837523952E-06  1.13860584981964195E-06
  9.29006344118126743E-07  7.56048685845840263E-07  6.13695362384943394E-07
                              </PP_PSWFC.1>
 <PP_PSWFC.2 type="real" size="   999" l="0" columns="3" label= "0S">
 -4.29942173260290620E-05 -4.35350180081085160E-05 -4.40826211254721301E-05
 -4.46371122422266957E-05 -4.51985779987432312E-05 -4.57671061251945332E-05
 -4.63427854552633280E-05 -4.69257059400227558E-05 -4.75159586619912838E-05
 -4.81136358493647768E-05 -4.87188308904270556E-05 -4.93316383481421671E-05
 -4.99521539749300271E-05 -5.05804747276279292E-05 -5.12166987826404471E-05
 -5.18609255512793982E-05 -5.25132556952972687E-05 -5.31737911426157753E-05
 -5.38426351032522668E-05 -5.45198920854467230E-05 -5.52056679119911471E-05
 -5.59000697367647198E-05 -5.66032060614768417E-05 -5.73151867526207082E-05
 -5.80361230586403699E-05 -5.87661276273132243E-05 -5.95053145233517063E-05
 -6.02537992462260535E-05 -6.10116987482113330E-05 -6.17791314526617771E-05
 -6.25562172725143540E-05 -6.33430776290255831E-05 -6.41398354707437522E-05
 -6.49466152927199569E-05 -6.57635431559608824E-05 -6.65907467071258981E-05
 -6.74283551984722438E-05 -6.82764995080510732E-05 -6.91353121601572418E-05
 -7.00049273460368640E-05 -7.08854809448544542E-05 -7.17771105449246959E-05
 -7.26799554652110189E-05 -7.35941567770944131E-05 -7.45198573264162760E-05
 -7.54572017557979198E-05 -7.64063365272416202E-05 -7.73674099450158198E-05
 -7.83405721788279033E-05 -7.93259752872886635E-05 -8.03237732416714267E-05
 -8.13341219499707694E-05 -8.23571792812633217E-05 -8.33931050903751831E-05
 -8.44420612428600152E-05 -8.55042116402903758E-05 -8.65797222458680103E-05
 -8.76687611103559348E-05 -8.87714983983366608E-05 -8.98881064148012506E-05
 -9.10187596320718057E-05 -9.21636347170635132E-05 -9.33229105588892602E-05
 -9.44967682968113278E-05 -9.56853913485452342E-05 -9.68889654389186813E-05
 -9.81076786288919062E-05 -9.93417213449425960E-05 -1.00591286408820325E-04
 -1.01856569067675830E-04 -1.03137767024568275E-04 -1.04435080469357142E-04
 -1.05748712109982694E-04 -1.07078867204139289E-04 -1.08425753591347710E-04
 -1.09789581725430036E-04 -1.11170564707394095E-04 -1.12568918318730924E-04
 -1.13984861055131152E-04 -1.15418614160625810E-04 -1.16870401662155844E-04
 -1.18340450404577237E-04 -1.19828990086106029E-04 -1.21336253294209153E-04
 -1.22862475541947322E-04 -1.24407895304773966E-04 -1.25972754057797939E-04
 -1.27557296313514671E-04 -1.29161769660012242E-04 -1.30786424799657477E-04
 -1.32431515588268199E-04 -1.34097299074780661E-04 -1.35784035541412735E-04
 -1.37491988544333145E-04 -1.39221424954845023E-04 -1.40972615001083972E-04
 -1.42745832310241970E-04 -1.44541353951322825E-04 -1.46359460478434747E-04
 -1.48200435974628222E-04 -1.50064568096284389E-04 -1.51952148118062748E-04
 -1.53863470978413022E-04 -1.55798835325660166E-04 -1.57758543564670545E-04
 -1.59742901904102416E-04 -1.61752220404251523E-04 -1.63786813025500460E-04
 -1.65846997677375295E-04 -1.67933096268219816E-04 -1.70045434755495075E-04
 -1.72184343196710963E-04 -1.74350155800999092E-04 -1.76543210981334705E-04
 -1.78763851407414998E-04 -1.81012424059199140E-04 -1.83289280281129333E-04
 -1.85594775837029792E-04 -1.87929270965691571E-04 -1.90293130437165886E-04
 -1.92686723609757798E-04 -1.95110424487741826E-04 -1.97564611779801089E-04
 -2.00049668958200081E-04 -2.02565984318706143E-04 -2.05113951041262303E-04
 -2.07693967251421216E-04 -2.10306436082554130E-04 -2.12951765738843578E-04
 -2.15630369559067451E-04 -2.18342666081183242E-04 -2.21089079107725060E-04
 -2.23870037772027974E-04 -2.26685976605280303E-04 -2.29537335604421350E-04
 -2.32424560300893067E-04 -2.35348101830254919E-04 -2.38308417002677759E-04
 -2.41305968374321114E-04 -2.44341224319611359E-04 -2.47414659104425335E-04
 -2.50526752960199663E-04 -2.53677992158967130E-04 -2.56868869089338034E-04
 -2.60099882333441734E-04 -2.63371536744829663E-04 -2.66684343527363941E-04
 -2.70038820315093961E-04 -2.73435491253138198E-04 -2.76874887079589017E-04
 -2.80357545208439877E-04 -2.83884009813560806E-04 -2.87454831913726738E-04
 -2.91070569458723113E-04 -2.94731787416518606E-04 -2.98439057861555831E-04
 -3.02192960064136761E-04 -3.05994080580933824E-04 -3.09843013346650033E-04
 -3.13740359766817101E-04 -3.17686728811780370E-04 -3.21682737111842322E-04
 -3.25729009053623815E-04 -3.29826176877621730E-04 -3.33974880777010744E-04
 -3.38175768997667865E-04 -3.42429497939472475E-04 -3.46736732258870830E-04
 -3.51098144972735414E-04 -3.55514417563525286E-04 -3.59986240085778805E-04
 -3.64514311273936395E-04 -3.69099338651522797E-04 -3.73742038641706954E-04
 -3.78443136679247356E-04 -3.83203367323845803E-04 -3.88023474374933738E-04
 -3.92904210987891239E-04 -3.97846339791741116E-04 -4.02850633008310218E-04
 -4.07917872572902379E-04 -4.13048850256480301E-04 -4.18244367789387611E-04
 -4.23505236986628582E-04 -4.28832279874722766E-04 -4.34226328820154061E-04
 -4.39688226659436807E-04 -4.45218826830819840E-04 -4.50818993507647481E-04
 -4.56489601733388783E-04 -4.62231537558384701E-04 -4.68045698178295555E-04
 -4.73932992074299056E-04 -4.79894339155057632E-04 -4.85930670900462062E-04
 -4.92042930507184261E-04 -4.98232073036073211E-04 -5.04499065561387207E-04
 -5.10844887321916345E-04 -5.17270529874001568E-04 -5.23776997246484062E-04
 -5.30365306097593217E-04 -5.37036485873816183E-04 -5.43791578970770698E-04
 -5.50631640896087713E-04 -5.57557740434356814E-04 -5.64570959814139324E-04
 -5.71672394877086282E-04 -5.78863155249180147E-04 -5.86144364514135270E-04
 -5.93517160388979553E-04 -6.00982694901838559E-04 -6.08542134571968480E-04
 -6.16196660592043259E-04 -6.23947469012736547E-04 -6.31795770929633165E-04
 -6.39742792672490582E-04 -6.47789775996869912E-04 -6.55937978278195205E-04
 -6.64188672708236573E-04 -6.72543148494087091E-04 -6.81002711059626540E-04
 -6.89568682249516859E-04 -6.98242400535786030E-04 -7.07025221226985855E-04
 -7.15918516679997573E-04 -7.24923676514504069E-04 -7.34042107830142239E-04
 -7.43275235426407266E-04 -7.52624502025320968E-04 -7.62091368496895004E-04
 -7.71677314087430128E-04 -7.81383836650697151E-04 -7.91212452882014781E-04
 -8.01164698555301862E-04 -8.11242128763064660E-04 -8.21446318159436062E-04
 -8.31778861206288931E-04 -8.42241372422398884E-04 -8.52835486635786710E-04
 -8.63562859239208657E-04 -8.74425166448883394E-04 -8.85424105566450111E-04
 -8.96561395244245790E-04 -9.07838775753920524E-04 -9.19258009258400199E-04
 -9.30820880087322093E-04 -9.42529195015906094E-04 -9.54384783547330387E-04
 -9.66389498198687281E-04 -9.78545214790510834E-04 -9.90853832739972120E-04
 -1.00331727535774842E-03 -1.01593749014863215E-03 -1.02871644911592636E-03
 -1.04165614906968451E-03 -1.05475861193879135E-03 -1.06802588508703232E-03
 -1.08146004163306572E-03 -1.09506318077450177E-03 -1.10883742811601128E-03
 -1.12278493600155246E-03 -1.13690788385085529E-03 -1.15120847850004831E-03
 -1.16568895454663272E-03 -1.18035157469878645E-03 -1.19519863012906066E-03
 -1.21023244083253855E-03 -1.22545535598948254E-03 -1.24086975433257917E-03
 -1.25647804451877831E-03 -1.27228266550583773E-03 -1.28828608693359859E-03
 -1.30449080951004922E-03 -1.32089936540227913E-03 -1.33751431863233356E-03
 -1.35433826547806994E-03 -1.37137383487903174E-03 -1.38862368884747371E-03
 -1.40609052288455448E-03 -1.42377706640173175E-03 -1.44168608314752074E-03
 -1.45982037163959835E-03 -1.47818276560233671E-03 -1.49677613440990574E-03
 -1.51560338353487587E-03 -1.53466745500253562E-03 -1.55397132785091148E-03
 -1.57351801859657772E-03 -1.59331058170634901E-03 -1.61335211007488885E-03
 -1.63364573550838377E-03 -1.65419462921426240E-03 -1.67500200229711072E-03
 -1.69607110626084035E-03 -1.71740523351715849E-03 -1.73900771790050390E-03
 -1.76088193518938812E-03 -1.78303130363438307E-03 -1.80545928449274071E-03
 -1.82816938256972475E-03 -1.85116514676680346E-03 -1.87445017063672735E-03
 -1.89802809294563140E-03 -1.92190259824219630E-03 -1.94607741743400169E-03
 -1.97055632837117752E-03 -1.99534315643730940E-03 -2.02044177514795449E-03
 -2.04585610675656364E-03 -2.07159012286812832E-03 -2.09764784506055865E-03
 -2.12403334551384973E-03 -2.15075074764725866E-03 -2.17780422676445940E-03
 -2.20519801070686401E-03 -2.23293638051523177E-03 -2.26102367109951496E-03
 -2.28946427191728053E-03 -2.31826262766061941E-03 -2.34742323895174767E-03
 -2.37695066304741999E-03 -2.40684951455216734E-03 -2.43712446614058678E-03
 -2.46778024928880286E-03 -2.49882165501504267E-03 -2.53025353462965792E-03
 -2.56208080049462068E-03 -2.59430842679253754E-03 -2.62694145030549714E-03
 -2.65998497120362729E-03 -2.69344415384374560E-03 -2.72732422757800521E-03
 -2.76163048757281605E-03 -2.79636829563808522E-03 -2.83154308106699530E-03
 -2.86716034148633281E-03 -2.90322564371761670E-03 -2.93974462464910869E-03
 -2.97672299211886732E-03 -3.01416652580894888E-03 -3.05208107815089667E-03
 -3.09047257524281771E-03 -3.12934701777789178E-03 -3.16871048198479489E-03
 -3.20856912057989078E-03 -3.24892916373161400E-03 -3.28979692003696046E-03
 -3.33117877751039652E-03 -3.37308120458533651E-03 -3.41551075112820268E-03
 -3.45847404946545605E-03 -3.50197781542358833E-03 -3.54602884938228554E-03
 -3.59063403734101493E-03 -3.63580035199911802E-03 -3.68153485384946268E-03
 -3.72784469228628181E-03 -3.77473710672678996E-03 -3.82221942774720481E-03
 -3.87029907823304049E-03 -3.91898357454426808E-03 -3.96828052769499472E-03
 -4.01819764454834204E-03 -4.06874272902639847E-03 -4.11992368333563563E-03
 -4.17174850920780816E-03 -4.22422530915680938E-03 -4.27736228775132607E-03
 -4.33116775290386894E-03 -4.38565011717604800E-03 -4.44081789910065906E-03
 -4.49667972452044533E-03 -4.55324432794405702E-03 -4.61052055391921508E-03
 -4.66851735842343379E-03 -4.72724381027243151E-03 -4.78670909254661370E-03
 -4.84692250403567695E-03 -4.90789346070170246E-03 -4.96963149716097251E-03
 -5.03214626818466928E-03 -5.09544755021880402E-03 -5.15954524292360286E-03
 -5.22444937073252968E-03 -5.29017008443140226E-03 -5.35671766275748473E-03
 -5.42410251401948505E-03 -5.49233517773779246E-03 -5.56142632630631135E-03
 -5.63138676667513608E-03 -5.70222744205515879E-03 -5.77395943364443498E-03
 -5.84659396237678826E-03 -5.92014239069282855E-03 -5.99461622433383485E-03
 -6.07002711415873582E-03 -6.14638685798443024E-03 -6.22370740244991647E-03
 -6.30200084490428573E-03 -6.38127943531939003E-03 -6.46155557822686039E-03
 -6.54284183468043911E-03 -6.62515092424345933E-03 -6.70849572700223194E-03
 -6.79288928560537689E-03 -6.87834480732954241E-03 -6.96487566617210938E-03
 -7.05249540497081360E-03 -7.14121773755104459E-03 -7.23105655090093037E-03
 -7.32202590737494278E-03 -7.41414004692574329E-03 -7.50741338936566915E-03
 -7.60186053665726832E-03 -7.69749627523384338E-03 -7.79433557835042257E-03
 -7.89239360846531735E-03 -7.99168571965287906E-03 -8.09222746004794637E-03
 -8.19403457432217250E-03 -8.29712300619302179E-03 -8.40150890096555067E-03
 -8.50720860810788397E-03 -8.61423868386015576E-03 -8.72261589387835802E-03
 -8.83235721591255768E-03 -8.94347984252095822E-03 -9.05600118381945374E-03
 -9.16993887026782556E-03 -9.28531075549277572E-03 -9.40213491914842180E-03
 -9.52042966981489144E-03 -9.64021354793532029E-03 -9.76150532879219157E-03
 -9.88432402552306792E-03 -1.00086888921770978E-02 -1.01346194268117449E-02
 -1.02621353746317080E-02 -1.03912567311694876E-02 -1.05220037455087522E-02
 -1.06543969235512685E-02 -1.07884570313277316E-02 -1.09242050983532086E-02
 -1.10616624210282104E-02 -1.12008505660855431E-02 -1.13417913740841304E-02
 -1.14845069629501955E-02 -1.16290197315666831E-02 -1.17753523634117965E-02
 -1.19235278302469334E-02 -1.20735693958553564E-02 -1.22255006198321928E-02
 -1.23793453614262361E-02 -1.25351277834349177E-02 -1.26928723561529136E-02
 -1.28526038613752946E-02 -1.30143473964563668E-02 -1.31781283784245720E-02
 -1.33439725481547811E-02 -1.35119059745990207E-02 -1.36819550590757278E-02
 -1.38541465396199229E-02 -1.40285074953936176E-02 -1.42050653511591202E-02
 -1.43838478818148121E-02 -1.45648832169955299E-02 -1.47481998457379120E-02
 -1.49338266212121970E-02 -1.51217927655217695E-02 -1.53121278745705410E-02
 -1.55048619230010228E-02 -1.57000252692028643E-02 -1.58976486603933480E-02
 -1.60977632377720357E-02 -1.63004005417495094E-02 -1.65055925172523203E-02
 -1.67133715191055861E-02 -1.69237703174936714E-02 -1.71368221035016789E-02
 -1.73525604947380695E-02 -1.75710195410403655E-02 -1.77922337302655609E-02
 -1.80162379941661600E-02 -1.82430677143543690E-02 -1.84727587283550279E-02
 -1.87053473357497342E-02 -1.89408703044132050E-02 -1.91793648768440496E-02
 -1.94208687765918715E-02 -1.96654202147814872E-02 -1.99130578967375849E-02
 -2.01638210287103797E-02 -2.04177493247054663E-02 -2.06748830134177754E-02
 -2.09352628452754257E-02 -2.11989300995905315E-02 -2.14659265918238883E-02
 -2.17362946809626541E-02 -2.20100772770141888E-02 -2.22873178486186728E-02
 -2.25680604307830664E-02 -2.28523496327371900E-02 -2.31402306459167310E-02
 -2.34317492520738774E-02 -2.37269518315196409E-02 -2.40258853714985093E-02
 -2.43285974747010532E-02 -2.46351363679145098E-02 -2.49455509108158884E-02
 -2.52598906049101846E-02 -2.55782056026164738E-02 -2.59005467165052197E-02
 -2.62269654286900571E-02 -2.65575139003768820E-02 -2.68922449815746055E-02
 -2.72312122209698373E-02 -2.75744698759692319E-02 -2.79220729229146224E-02
 -2.82740770674723071E-02 -2.86305387552018668E-02 -2.89915151823086220E-02
 -2.93570643065817587E-02 -2.97272448585256185E-02 -3.01021163526846054E-02
 -3.04817390991685665E-02 -3.08661742153824685E-02 -3.12554836379647094E-02
 -3.16497301349386168E-02 -3.20489773180823098E-02 -3.24532896555215084E-02
 -3.28627324845506066E-02 -3.32773720246868632E-02 -3.36972753909630315E-02
 -3.41225106074643306E-02 -3.45531466211143681E-02 -3.49892533157164995E-02
 -3.54309015262560464E-02 -3.58781630534698998E-02 -3.63311106786881124E-02
 -3.67898181789555329E-02 -3.72543603424388900E-02 -3.77248129841263879E-02
 -3.82012529618248886E-02 -3.86837581924641336E-02 -3.91724076687128969E-02
 -3.96672814759152087E-02 -4.01684608093525602E-02 -4.06760279918429099E-02
 -4.11900664916790699E-02 -4.17106609409183954E-02 -4.22378971540304723E-02
 -4.27718621469093466E-02 -4.33126441562606615E-02 -4.38603326593711637E-02
 -4.44150183942678758E-02 -4.49767933802790523E-02 -4.55457509390006232E-02
 -4.61219857156819485E-02 -4.67055937010376621E-02 -4.72966722534932868E-02
 -4.78953201218783597E-02 -4.85016374685708490E-02 -4.91157258931090371E-02
 -4.97376884562729590E-02 -5.03676297046515842E-02 -5.10056556957030130E-02
 -5.16518740233160162E-02 -5.23063938438857803E-02 -5.29693259029125688E-02
 -5.36407825621321860E-02 -5.43208778271903059E-02 -5.50097273758691913E-02
 -5.57074485868770120E-02 -5.64141605692107043E-02 -5.71299841920994214E-02
 -5.78550421155417938E-02 -5.85894588214440001E-02 -5.93333606453691834E-02
 -6.00868758089047883E-02 -6.08501344526613669E-02 -6.16232686699064863E-02
 -6.24064125408440168E-02 -6.31997021675478193E-02 -6.40032757095523319E-02
 -6.48172734201130779E-02 -6.56418376831375550E-02 -6.64771130507941094E-02
 -6.73232462818053462E-02 -6.81803863804234384E-02 -6.90486846360984230E-02
 -6.99282946638351832E-02 -7.08193724452389622E-02 -7.17220763702553638E-02
 -7.26365672795939027E-02 -7.35630085078384094E-02 -7.45015659272348224E-02
 -7.54524079921497226E-02 -7.64157057841913373E-02 -7.73916330579816347E-02
 -7.83803662875632162E-02 -7.93820847134275448E-02 -8.03969703901417643E-02
 -8.14252082345578304E-02 -8.24669860745680383E-02 -8.35224946983887939E-02
 -8.45919279043324396E-02 -8.56754825510307322E-02 -8.67733586080708663E-02
 -8.78857592069926113E-02 -8.90128906926004743E-02 -9.01549626745272031E-02
 -9.13121880789891094E-02 -9.24847832006575332E-02 -9.36729677545782430E-02
 -9.48769649280427757E-02 -9.60970014323230676E-02 -9.73333075541729514E-02
 -9.85861172069708164E-02 -9.98556679813994430E-02 -1.01142201195512718E-01
 -1.02445961944059860E-01 -1.03767199146899400E-01 -1.05106165596341478E-01
 -1.06463118003227136E-01 -1.07838317041547421E-01 -1.09232027391390027E-01
 -1.10644517779971613E-01 -1.12076061020511777E-01 -1.13526934048671826E-01
 -1.14997417956261672E-01 -1.16487798021909200E-01 -1.17998363738332682E-01
 -1.19529408835873166E-01 -1.21081231301865211E-01 -1.22654133395445411E-01
 -1.24248421657326080E-01 -1.25864406914050958E-01 -1.27502404276206460E-01
 -1.29162733130024909E-01 -1.30845717121772176E-01 -1.32551684134273151E-01
 -1.34280966254881090E-01 -1.36033899734146951E-01 -1.37810824934390924E-01
 -1.39612086267331625E-01 -1.41438032119849150E-01 -1.43289014766921574E-01
 -1.45165390270686839E-01 -1.47067518364522309E-01 -1.48995762320953296E-01
 -1.50950488802125166E-01 -1.52932067691486651E-01 -1.54940871905246996E-01
 -1.56977277182060643E-01 -1.59041661849311594E-01 -1.61134406564245852E-01
 -1.63255894028095511E-01 -1.65406508671207653E-01 -1.67586636307082704E-01
 -1.69796663753066929E-01 -1.72036978415324532E-01 -1.74307967835540006E-01
 -1.76610019196668633E-01 -1.78943518784856093E-01 -1.81308851404488547E-01
 -1.83706399743142457E-01 -1.86136543682995426E-01 -1.88599659555055310E-01
 -1.91096119332346659E-01 -1.93626289757947018E-01 -1.96190531403543977E-01
 -1.98789197653897021E-01 -2.01422633612316299E-01 -2.04091174922002350E-01
 -2.06795146497767701E-01 -2.09534861162354119E-01 -2.12310618181215383E-01
 -2.15122701689289708E-01 -2.17971379002918658E-01 -2.20856898809662333E-01
 -2.23779489228387141E-01 -2.26739355731533115E-01 -2.29736678921070719E-01
 -2.32771612149134693E-01 -2.35844278973894816E-01 -2.38954770440638953E-01
 -2.42103142177595709E-01 -2.45289411295386783E-01 -2.48513553078478638E-01
 -2.51775497456359520E-01 -2.55075125241572054E-01 -2.58412264121046509E-01
 -2.61786684386527968E-01 -2.65198094389173744E-01 -2.68646135702680644E-01
 -2.72130377978506366E-01 -2.75650313476038578E-01 -2.79205351249777356E-01
 -2.82794810974671684E-01 -2.86417916389947458E-01 -2.90073788340947325E-01
 -2.93761437397534131E-01 -2.97479756026771291E-01 -3.01227510296615819E-01
 -3.05003331086452945E-01 -3.08805704779323231E-01 -3.12632963409759990E-01
 -3.16483274240162149E-01 -3.20354628737679226E-01 -3.24244830922608918E-01
 -3.28151485058367387E-01 -3.32071982652124176E-01 -3.36003488734312572E-01
 -3.39942927384302207E-01 -3.43886966468673838E-01 -3.47832001557757564E-01
 -3.51774138985301354E-01 -3.55709178015483019E-01 -3.59632592080883384E-01
 -3.63539509054509824E-01 -3.67424690518574903E-01 -3.71282509992473309E-01
 -3.75106930082154622E-01 -3.78891478513572300E-01 -3.82629223012614261E-01
 -3.86312744994515622E-01 -3.89934112026510515E-01 -3.93484849028455042E-01
 -3.96955908177306527E-01 -4.00337637483026088E-01 -4.03619748005344114E-01
 -4.06791279683230811E-01 -4.09840565751718289E-01 -4.12755195723992496E-01
 -4.15521976920559422E-01 -4.18126894531678395E-01 -4.20555070204373105E-01
 -4.22790719151116212E-01 -4.24817105783802273E-01 -4.26616497884088230E-01
 -4.28170119329388699E-01 -4.29458101403164261E-01 -4.30459432728412528E-01
 -4.31151907874757989E-01 -4.31512074702218307E-01 -4.31515180518691088E-01
 -4.31135117143631230E-01 -4.30344364987227168E-01 -4.29113936272872032E-01
 -4.27413317551103122E-01 -4.25210411674748490E-01 -4.22471479429012808E-01
 -4.19161081036242333E-01 -4.15242017782961548E-01 -4.10675274046942540E-01
 -4.05419960034562099E-01 -3.99433255573557577E-01 -3.92670355343653854E-01
 -3.85084415967486215E-01 -3.76626505426817360E-01 -3.67245555314355654E-01
 -3.56888316479562928E-01 -3.45499318677636114E-01 -3.33020834884602546E-01
 -3.19392850997831157E-01 -3.04553041700550031E-01 -2.88436753330841456E-01
 -2.70976994660056536E-01 -2.52104436552549105E-01 -2.31747421547790378E-01
 -2.09831984477078126E-01 -1.86281885299965810E-01 -1.61018655419684104E-01
 -1.33961658812823542E-01 -1.05028169384294795E-01 -7.41334660263563566E-02
 -4.11909469461435307E-02 -6.11226489309026413E-03  3.11925150127437961E-02
  7.08147330838548583E-02  1.12846926671182846E-01  1.57382593689040423E-01
  2.04515926128229719E-01  2.54341511588613123E-01  3.06954000835748919E-01
  3.62447739372543876E-01  4.20916361018572660E-01  4.82452341508920302E-01
  5.47146510163785682E-01  6.15087517742174850E-01  6.86361258680858066E-01
  7.61050246036298894E-01  8.39232937595848383E-01  9.20983011808199303E-01
  1.00636859240596599E+00  1.09545142085824865E+00  1.18828597610234166E+00
  1.28491854136493244E+00  1.38538621829716768E+00  1.48971588910927211E+00
  1.59792312795474367E+00  1.71001106339537512E+00  1.82596919441093197E+00
  1.94577216318489410E+00  2.06937848869253882E+00  2.19672926599346585E+00
  2.32774683708068153E+00  2.46233344016085809E+00  2.60036984533399318E+00
  2.74171398580246528E+00  2.88619959496471390E+00  3.03363486103114521E+00
  3.18380111213158346E+00  3.33645154625302665E+00  3.49131002174205074E+00
  3.64806992551094122E+00  3.80639313748268382E+00  3.96590911117538392E+00
  4.12621409163605080E+00  4.28687049315897717E+00  4.44740646033240417E+00
  4.60731563691303592E+00  4.76605716779226185E+00  4.92305595984629552E+00
  5.07770322771710436E+00  5.22935735049653694E+00  5.37734506475135188E+00
  5.52096301849679083E+00  5.65947970930816346E+00  5.79213782780737230E+00
  5.91815702521481946E+00  6.03673712042342814E+00  6.14706175763630913E+00
  6.24831161209104025E+00  6.33975949989053778E+00  6.42073862970039411E+00
  6.49058654307414251E+00  6.54864751674012702E+00  6.59427610003645270E+00
  6.62684090807992288E+00  6.64572867242769938E+00  6.65034854893674776E+00
  6.64013668030067805E+00  6.61456100823669502E+00  6.57312632741389447E+00
  6.51537957042176075E+00  6.44091530925212830E+00  6.34938145456677194E+00
  6.24048513139209504E+00  6.11399870388009781E+00  5.96976591781027732E+00
  5.80770812387810320E+00  5.62783053979301329E+00  5.43022850342218533E+00
  5.21509366306760569E+00  4.98272004479809372E+00  4.73350993033867695E+00
  4.46797947245993932E+00  4.18676396816936691E+00  3.89062270335610494E+00
  3.58044327595711520E+00  3.25724529829350296E+00  2.92218337306715403E+00
  2.57654923173172712E+00  2.22177291869201010E+00  1.85942290018399370E+00
  1.49120497292126997E+00  1.11895984483817412E+00  7.44659258734308160E-01
  3.70400529556151548E-01 -1.60063230611855764E-03 -3.69019135686696031E-01
 -7.29431479319939791E-01 -1.08032878799658860E+00 -1.41913201213836038E+00
 -1.74320937407214882E+00 -2.04989612516378106E+00 -2.33651665531034736E+00
 -2.60040896994504189E+00 -2.83895151719793848E+00 -3.04959231103259221E+00
 -3.22988025393339084E+00 -3.37749851499975673E+00 -3.49029976606658199E+00
 -3.56634301978572354E+00 -3.60393174969093888E+00 -3.60165290353031953E+00
 -3.55841634819220820E+00 -3.47349420821840260E+00 -3.34655948129684999E+00
 -3.17772323465071960E+00 -2.96756960759595234E+00 -2.71718776975883269E+00
 -2.42819991389655820E+00 -2.10278429966127067E+00 -1.74369231303255234E+00
 -1.35425846886766910E+00 -9.38402264712872691E-01 -5.00620796530232726E-01
 -4.59710753233977670E-02  4.19958958203759281E-01  8.91091632234794706E-01
  1.36091373622494194E+00  1.82254431678166218E+00  2.26881647274007836E+00
  2.69237328381880037E+00  3.08577769887759645E+00  3.44163585413889539E+00
  3.75273289020975698E+00  4.01217989253787710E+00  4.21357009818010830E+00
  4.35114199980516680E+00  4.41994644545988624E+00  4.41601429218861785E+00
  4.33652063826651002E+00  4.17994115057791227E+00  3.94619554137302009E+00
  3.63677285580881504E+00  3.25483293433265608E+00  2.80527824014817728E+00
  2.29479022121446175E+00  1.73182453858776797E+00  1.12655986811263831E+00
  4.90795598441277070E-01 -1.62205370272835880E-01 -8.17931356805276844E-01
 -1.46089532671668354E+00 -2.07496641779672952E+00 -2.64375691073040597E+00
 -3.15105967500547202E+00 -3.58132857163926621E+00 -3.92019158000670398E+00
 -4.15498361488783008E+00 -4.27528321376391496E+00 -4.27343462760488357E+00
 -4.14503448644309991E+00 -3.88936029853504195E+00 -3.50971675860290411E+00
 -3.01367537549664322E+00 -2.41318347283791290E+00 -1.72452034901231954E+00
 -9.68081464972791794E-01 -1.67976083329350823E-01  6.48570118629861470E-01
  1.45200829467645409E+00  2.21144726292805061E+00  2.89580328320921199E+00
  3.47508880440169854E+00  3.92179835854925463E+00  4.21233798495099432E+00
  4.32843353822529053E+00  4.25844378895358044E+00  3.99849721370260669E+00
  3.55336794711062431E+00  2.93700725938624663E+00  2.17265312127242138E+00
  1.29245264583347197E+00  3.36550894392951605E-01 -6.48375189685139630E-01
 -1.61112745998828033E+00 -2.49849479771923288E+00 -3.25817126433944360E+00
 -3.84195441385357839E+00 -4.20905316218965098E+00 -4.32929850168355923E+00
 -4.18602284436500849E+00 -3.77835896021932616E+00 -3.12271132020380016E+00
 -2.25317462999481632E+00 -1.22071895699840205E+00 -9.10291559780075921E-02
  1.05902262197376595E+00  2.14618199579933355E+00  3.08668161688304288E+00
  3.80283252606389244E+00  4.22987353014937995E+00  4.32251284985723494E+00
  4.06052936998553982E+00  3.45278388455583407E+00  2.53903595065557397E+00
  1.38907833616270637E+00  9.88917500427797247E-02 -1.21621744225897754E+00
 -2.43121883963205709E+00 -3.42307594103144597E+00 -4.08361616095578572E+00
 -4.33229174024361186E+00 -4.12738368831325264E+00 -3.47409890660732579E+00
 -2.42819327339740498E+00 -1.09401646963852683E+00  3.83569764033626137E-01
  1.83324876785000601E+00  3.07630841452578485E+00  3.94887509931949765E+00
  4.32477304476429669E+00  4.13585776047290121E+00  3.38660631128652456E+00
                              </PP_PSWFC.2>
 <PP_PSWFC.3 type="real" size="   999" l="1" columns="3" label= "3P">
  3.29276761900132803E-09  3.37612442798113647E-09  3.46159142461889998E-09
  3.54922202856909543E-09  3.63907101181118855E-09  3.73119453288387001E-09
  3.82565017198599081E-09  3.92249696696604585E-09  4.02179545022274785E-09
  4.12360768653977719E-09  4.22799731187824809E-09  4.33502957315126574E-09
  4.44477136900537968E-09  4.55729129163440409E-09  4.67265966965178865E-09
  4.79094861204825026E-09  4.91223205326227288E-09  5.03658579939151620E-09
  5.16408757557408253E-09  5.29481707456930982E-09  5.42885600656826299E-09
  5.56628815026529755E-09  5.70719940522246944E-09  5.85167784555953890E-09
  5.99981377500318769E-09  6.15169978332974195E-09  6.30743080423681894E-09
  6.46710417467996363E-09  6.63081969571141053E-09  6.79867969485901278E-09
  6.97078909008421439E-09  7.14725545535924258E-09  7.32818908790429199E-09
  7.51370307712689432E-09  7.70391337530650264E-09  7.89893887006836085E-09
  8.09890145869219200E-09  8.30392612430193348E-09  8.51414101398423565E-09
  8.72967751888463349E-09  8.95067035633115456E-09  9.17725765403712310E-09
  9.40958103643542497E-09  9.64778571319836906E-09  9.89202056999853649E-09
  1.01424382615670148E-08  1.03991953071076706E-08  1.06624521881267008E-08
  1.09323734487387669E-08  1.12091277985124868E-08  1.14928882179192631E-08
  1.17838320664518035E-08  1.20821411934795029E-08  1.23880020519102078E-08
  1.27016058147294052E-08  1.30231484944894282E-08  1.33528310658237190E-08
  1.36908595910625169E-08  1.40374453490284358E-08  1.43928049670927114E-08
  1.47571605565741669E-08  1.51307398515660934E-08  1.55137763512774347E-08
  1.59065094659773159E-08  1.63091846666343481E-08  1.67220536383437783E-08
  1.71453744376389472E-08  1.75794116537849480E-08  1.80244365741554664E-08
  1.84807273537963025E-08  1.89485691892811204E-08  1.94282544969686481E-08
  1.99200830957723666E-08  2.04243623945569906E-08  2.09414075842791144E-08
  2.14715418349915645E-08  2.20150964978352534E-08  2.25724113121443901E-08
  2.31438346177944935E-08  2.37297235729262389E-08  2.43304443771806408E-08
  2.49463725005858144E-08  2.55778929182378797E-08  2.62254003509227722E-08
  2.68892995118297064E-08  2.75700053595097371E-08  2.82679433572384323E-08
  2.89835497389441500E-08  2.97172717818682817E-08  3.04695680861281849E-08
  3.12409088613567959E-08  3.20317762205989910E-08  3.28426644816478191E-08
  3.36740804760089847E-08  3.45265438656871459E-08  3.54005874679911077E-08
  3.62967575885620835E-08  3.72156143628322042E-08  3.81577321061272698E-08
  3.91236996726325693E-08  4.01141208234453061E-08  4.11296146039450804E-08
  4.21708157307170841E-08  4.32383749882703177E-08  4.43329596357992563E-08
  4.54552538242418287E-08  4.66059590238960608E-08  4.77857944628615204E-08
  4.89954975765799984E-08  5.02358244687566464E-08  5.15075503839486158E-08
  5.28114701921181631E-08  5.41483988854518445E-08  5.55191720877567601E-08
  5.69246465767525306E-08  5.83657008195844194E-08  5.98432355218938124E-08
  6.13581741907880652E-08  6.29114637120619913E-08  6.45040749420321229E-08
  6.61370033143525113E-08  6.78112694621931037E-08  6.95279198561678365E-08
  7.12880274584123797E-08  7.30926923932201160E-08  7.49430426346543431E-08
  7.68402347115685896E-08  7.87854544304739158E-08  8.07799176167058187E-08
  8.28248708743543329E-08  8.49215923654305275E-08  8.70713926087591168E-08
  8.92756152990942600E-08  9.15356381469715887E-08  9.38528737398211045E-08
  9.62287704248798464E-08  9.86648132144537475E-08  1.01162524714098602E-07
  1.03723466074296348E-07  1.06349237966223593E-07  1.09041481582222656E-07
  1.11801879661597565E-07  1.14632157542380373E-07  1.17534084239721520E-07
  1.20509473551580291E-07  1.23560185192406511E-07  1.26688125955519663E-07
  1.29895250904915810E-07  1.33183564597243662E-07  1.36555122334715670E-07
  1.40012031449737626E-07  1.43556452622055878E-07  1.47190601229251286E-07
  1.50916748731419633E-07  1.54737224090904644E-07  1.58654415227974083E-07
  1.62670770513342598E-07  1.66788800298481190E-07  1.71011078484665198E-07
  1.75340244131742229E-07  1.79779003107628290E-07  1.84330129779557643E-07
  1.88996468748149749E-07  1.93780936625372458E-07  1.98686523857515034E-07
  2.03716296594310964E-07  2.08873398605374111E-07  2.14161053245153531E-07
  2.19582565467628889E-07  2.25141323892008515E-07  2.30840802920721762E-07
  2.36684564911025133E-07  2.42676262401586678E-07  2.48819640395433829E-07
  2.55118538700694150E-07  2.61576894330595106E-07  2.68198743964214370E-07
  2.74988226469528600E-07  2.81949585490331475E-07  2.89087172098639225E-07
  2.96405447514243966E-07  3.03908985893108678E-07  3.11602477186353492E-07
  3.19490730071616648E-07  3.27578674958621260E-07  3.35871367070831421E-07
  3.44373989605114961E-07  3.53091856971398087E-07  3.62030418114329067E-07
  3.71195259919030003E-07  3.80592110703067601E-07  3.90226843796818138E-07
  4.00105481214472679E-07  4.10234197417973827E-07  4.20619323176234254E-07
  4.31267349522055299E-07  4.42184931809206414E-07  4.53378893872218422E-07
  4.64856232291476939E-07  4.76624120766285672E-07  4.88689914598638970E-07
  5.01061155290491507E-07  5.13745575257414789E-07  5.26751102661577998E-07
  5.40085866367072210E-07  5.53758201020684957E-07  5.67776652261282345E-07
  5.82149982061078112E-07  5.96887174202110014E-07  6.11997439891351036E-07
  6.27490223517975925E-07  6.43375208556355925E-07  6.59662323618502004E-07
  6.76361748659717055E-07  6.93483921341343500E-07  7.11039543554589346E-07
  7.29039588109491141E-07  7.47495305593217783E-07  7.66418231401988117E-07
  7.85820192950995376E-07  8.05713317066859588E-07  8.26110037567204501E-07
  8.47023103032120181E-07  8.68465584772356315E-07  8.90450884999222229E-07
  9.12992745201321232E-07  9.36105254733314882E-07  9.59802859622135112E-07
  9.84100371596105154E-07  1.00901297734263791E-06  1.03455624800029447E-06
  1.06074614889111548E-06  1.08759904949933886E-06  1.11513173370271690E-06
  1.14336141026284017E-06  1.17230572358102002E-06  1.20198276472644218E-06
  1.23241108274350881E-06  1.26360969624541158E-06  1.29559810530119088E-06
  1.32839630362372488E-06  1.36202479106622557E-06  1.39650458643510177E-06
  1.43185724062716258E-06  1.46810485009938893E-06  1.50527007067967562E-06
  1.54337613172719752E-06  1.58244685065122688E-06  1.62250664779748745E-06
  1.66358056171136659E-06  1.70569426478747042E-06  1.74887407931538148E-06
  1.79314699393156295E-06  1.83854068048776162E-06  1.88508351134641633E-06
  1.93280457711387207E-06  1.98173370482252732E-06  2.03190147657321751E-06
  2.08333924864953545E-06  2.13607917111602457E-06  2.19015420791244911E-06
  2.24559815745678129E-06  2.30244567376969519E-06  2.36073228813382859E-06
  2.42049443130134189E-06  2.48176945626360201E-06  2.54459566159730603E-06
  2.60901231540155357E-06  2.67505967984087414E-06  2.74277903630955327E-06
  2.81221271123293321E-06  2.88340410252187865E-06  2.95639770669688039E-06
  3.03123914669879562E-06  3.10797520040357686E-06  3.18665382985880717E-06
  3.26732421126034943E-06  3.35003676568777378E-06  3.43484319061784478E-06
  3.52179649223574185E-06  3.61095101856413560E-06  3.70236249343095100E-06
  3.79608805129691885E-06  3.89218627296476369E-06  3.99071722219231097E-06
  4.09174248323237860E-06  4.19532519932298120E-06  4.30153011215175123E-06
  4.41042360231945087E-06  4.52207373082767366E-06  4.63655028161673418E-06
  4.75392480518036339E-06  4.87427066328438121E-06  4.99766307481737082E-06
  5.12417916280196784E-06  5.25389800259609092E-06  5.38690067131437590E-06
  5.52327029850051490E-06  5.66309211808230157E-06  5.80645352164180838E-06
  5.95344411303392184E-06  6.10415576438747351E-06  6.25868267352385011E-06
  6.41712142282902411E-06  6.57957103961582530E-06  6.74613305801402342E-06
  6.91691158242707961E-06  7.09201335259505269E-06  7.27154781030443991E-06
  7.45562716778656856E-06  7.64436647784723144E-06  7.83788370577150432E-06
  8.03629980304854416E-06  8.23973878296252540E-06  8.44832779809690852E-06
  8.66219721980038601E-06  8.88148071966433350E-06  9.10631535306246070E-06
  9.33684164480501756E-06  9.57320367696101508E-06  9.81554917890324689E-06
  1.00640296196324885E-05  1.03188003024384774E-05  1.05800204619568363E-05
  1.08478533636826131E-05  1.11224664060024286E-05  1.14040312248092165E-05
  1.16927238007647638E-05  1.19887245692769998E-05  1.22922185332609607E-05
  1.26033953787535386E-05  1.29224495934545602E-05  1.32495805882680220E-05
  1.35849928219194243E-05  1.39288959287272314E-05  1.42815048496079322E-05
  1.46430399663968457E-05  1.50137272395684516E-05  1.53937983494420459E-05
  1.57834908409613760E-05  1.61830482721381762E-05  1.65927203662526885E-05
  1.70127631679060803E-05  1.74434392030220472E-05  1.78850176428979719E-05
  1.83377744724074471E-05  1.88019926624598317E-05  1.92779623468241795E-05
  1.97659810034279100E-05  2.02663536402437287E-05  2.07793929858805440E-05
  2.13054196849975736E-05  2.18447624986637026E-05  2.23977585097867854E-05
  2.29647533337419068E-05  2.35461013343291635E-05  2.41421658451966221E-05
  2.47533193968662770E-05  2.53799439495045826E-05  2.60224311315834495E-05
  2.66811824845798500E-05  2.73566097138676547E-05  2.80491349459577034E-05
  2.87591909922467172E-05  2.94872216194401735E-05  3.02336818268171300E-05
  3.09990381305107109E-05  3.17837688549815430E-05  3.25883644318654091E-05
  3.34133277063828092E-05  3.42591742515002378E-05  3.51264326900403343E-05
  3.60156450249414723E-05  3.69273669778723463E-05  3.78621683364139519E-05
  3.88206333100242799E-05  3.98033608950087948E-05  4.08109652487238697E-05
  4.18440760732465464E-05  4.29033390087503176E-05  4.39894160368317977E-05
  4.51029858940401831E-05  4.62447444958675088E-05  4.74154053714633314E-05
  4.86157001093460474E-05  4.98463788143876851E-05  5.11082105763579044E-05
  5.24019839503189701E-05  5.37285074491709110E-05  5.50886100486547045E-05
  5.64831417051271732E-05  5.79129738864313690E-05  5.93790001161928781E-05
  6.08821365318806270E-05  6.24233224569814403E-05  6.40035209876430044E-05
  6.56237195941524452E-05  6.72849307376244921E-05  6.89881925022825309E-05
  7.07345692437286693E-05  7.25251522536038092E-05  7.43610604410541544E-05
  7.62434410314268278E-05  7.81734702826302873E-05  8.01523542196058507E-05
  8.21813293873668469E-05  8.42616636230750427E-05  8.63946568476337522E-05
  8.85816418772916860E-05  9.08239852557614515E-05  9.31230881073709095E-05
  9.54803870117782567E-05  9.78973549007948566E-05  1.00375501977873548E-04
  1.02916376660834659E-04  1.05521566548415354E-04  1.08192699411244019E-04
  1.10931444207854960E-04  1.13739512126375680E-04  1.16618657652533912E-04
  1.19570679664647746E-04  1.22597422556279767E-04  1.25700777387252166E-04
  1.28882683063738225E-04  1.32145127548162641E-04  1.35490149099662350E-04
  1.38919837545877395E-04  1.42436335586861810E-04  1.46041840131924390E-04
  1.49738603670226581E-04  1.53528935675990814E-04  1.57415204049188322E-04
  1.61399836592601730E-04  1.65485322526177253E-04  1.69674214039605296E-04
  1.73969127884092585E-04  1.78372747004310696E-04  1.82887822211533300E-04
  1.87517173898998311E-04  1.92263693800555932E-04  1.97130346793692753E-04
  2.02120172748047308E-04  2.07236288420560078E-04  2.12481889398432575E-04
  2.17860252091093989E-04  2.23374735772410100E-04  2.29028784674394352E-04
  2.34825930133715955E-04  2.40769792792332106E-04  2.46864084853600451E-04
  2.53112612395267633E-04  2.59519277740760397E-04  2.66088081890241215E-04
  2.72823127012929471E-04  2.79728619002225592E-04  2.86808870095208660E-04
  2.94068301558127946E-04  3.01511446439536130E-04  3.09142952392765064E-04
  3.16967584569475701E-04  3.24990228586066136E-04  3.33215893564761179E-04
  3.41649715251250556E-04  3.50296959210795315E-04  3.59163024104762040E-04
  3.68253445049597299E-04  3.77573897060304320E-04  3.87130198580531862E-04
  3.96928315101442611E-04  4.06974362871574311E-04  4.17274612699968916E-04
  4.27835493854895345E-04  4.38663598060552522E-04  4.49765683594195438E-04
  4.61148679486188165E-04  4.72819689825548220E-04  4.84785998173611367E-04
  4.97055072088506975E-04  5.09634567763206045E-04  5.22532334779961596E-04
  5.35756420984041760E-04  5.49315077479715442E-04  5.63216763751532351E-04
  5.77470152914005635E-04  5.92084137092885646E-04  6.07067832941288296E-04
  6.22430587294022105E-04  6.38181982963538508E-04  6.54331844681013144E-04
  6.70890245186149862E-04  6.87867511469387343E-04  7.05274231170274855E-04
  7.23121259135879385E-04  7.41419724143169254E-04  7.60181035789428677E-04
  7.79416891554838209E-04  7.99139284041472018E-04  8.19360508393049652E-04
  8.40093169899894807E-04  8.61350191793651908E-04  8.83144823236426606E-04
  9.05490647509117294E-04  9.28401590403833818E-04  9.51891928825394267E-04
  9.75976299607030843E-04  1.00066970854553869E-03  1.02598753966123553E-03
  1.05194556468822184E-03  1.07855995280056348E-03  1.10584728058014687E-03
  1.13382454223208418E-03  1.16250916005371002E-03  1.19191899516330781E-03
  1.22207235849489354E-03  1.25298802206549138E-03  1.28468523052150708E-03
  1.31718371297096111E-03  1.35050369510846522E-03  1.38466591164003016E-03
  1.41969161901491750E-03  1.45560260847192721E-03  1.49242121940768523E-03
  1.53017035307465108E-03  1.56887348661675268E-03  1.60855468745073056E-03
  1.64923862800144439E-03  1.69095060079959680E-03  1.73371653395049921E-03
  1.77756300698270588E-03  1.82251726708553019E-03  1.86860724574467048E-03
  1.91586157578534002E-03  1.96430960883254733E-03  2.01398143319833547E-03
  2.06490789220603382E-03  2.11712060296177611E-03  2.17065197558374964E-03
  2.22553523289988802E-03  2.28180443062492300E-03  2.33949447802793160E-03
  2.39864115910178987E-03  2.45928115424612695E-03  2.52145206247565397E-03
  2.58519242416594590E-03  2.65054174434905393E-03  2.71754051657150698E-03
  2.78623024732756923E-03  2.85665348108084466E-03  2.92885382588758958E-03
  3.00287597963533933E-03  3.07876575691074178E-03  3.15657011651072775E-03
  3.23633718961144692E-03  3.31811630860962426E-03  3.40195803665132614E-03
  3.48791419786333330E-03  3.57603790830262388E-03  3.66638360763977275E-03
  3.75900709159228885E-03  3.85396554512424869E-03  3.95131757642883281E-03
  4.05112325171065775E-03  4.15344413078507380E-03  4.25834330351190695E-03
  4.36588542708133895E-03  4.47613676416994902E-03  4.58916522198523583E-03
  4.70504039221711096E-03  4.82383359191526119E-03  4.94561790531144151E-03
  5.07046822660607230E-03  5.19846130373874914E-03  5.32967578316257806E-03
  5.46419225564243570E-03  5.60209330309752781E-03  5.74346354650888402E-03
  5.88838969491258142E-03  6.03696059549979798E-03  6.18926728484493673E-03
  6.34540304128329655E-03  6.50546343845993889E-03  6.66954640007157585E-03
  6.83775225582348815E-03  7.01018379862357842E-03  7.18694634303587362E-03
  7.36814778501578265E-03  7.55389866294961087E-03  7.74431222002086844E-03
  7.93950446792592197E-03  8.13959425196164772E-03  8.34470331750761067E-03
  8.55495637792539135E-03  8.77048118389754661E-03  8.99140859422858929E-03
  9.21787264813030312E-03  9.45001063901344633E-03  9.68796318980777796E-03
  9.93187432983206817E-03  1.01818915732353708E-02  1.04381659990306526E-02
  1.07008523327413105E-02  1.09701090296807913E-02  1.12460983598848940E-02
  1.15289864947158913E-02  1.18189435951568510E-02  1.21161439018139180E-02
  1.24207658266434207E-02  1.27329920464200139E-02  1.30530095979608223E-02
  1.33810099751197984E-02  1.37171892275651987E-02  1.40617480613519225E-02
  1.44148919412991350E-02  1.47768311951819754E-02  1.51477811197450966E-02
  1.55279620885434462E-02  1.59175996616142193E-02  1.63169246969820311E-02
  1.67261734639969524E-02  1.71455877585032293E-02  1.75754150198335519E-02
  1.80159084496218092E-02  1.84673271324237859E-02  1.89299361581328138E-02
  1.94040067461741968E-02  1.98898163714583895E-02  2.03876488920701170E-02
  2.08977946786659610E-02  2.14205507455495180E-02  2.19562208833886524E-02
  2.25051157935347648E-02  2.30675532238991399E-02  2.36438581063364468E-02
  2.42343626954797838E-02  2.48394067089659429E-02  2.54593374689834270E-02
  2.60945100450693489E-02  2.67452873980743543E-02  2.74120405252073693E-02
  2.80951486060647786E-02  2.87949991495397503E-02  2.95119881414996864E-02
  3.02465201931099159E-02  3.09990086896738161E-02  3.17698759398476124E-02
  3.25595533250787328E-02  3.33684814491051127E-02  3.41971102873411537E-02
  3.50458993359643659E-02  3.59153177605027601E-02  3.68058445437106779E-02
  3.77179686325054553E-02  3.86521890837231291E-02  3.96090152084354608E-02
  4.05889667145538369E-02  4.15925738474289888E-02  4.26203775281368477E-02
  4.36729294891221378E-02  4.47507924068518553E-02  4.58545400311091700E-02
  4.69847573105381250E-02  4.81420405140251251E-02  4.93269973474808679E-02
  5.05402470655614139E-02  5.17824205778406668E-02  5.30541605489207799E-02
  5.43561214919379559E-02  5.56889698548926615E-02  5.70533840992024019E-02
  5.84500547698434056E-02  5.98796845564150346E-02  6.13429883444293333E-02
  6.28406932560870712E-02  6.43735386797680692E-02  6.59422762874250501E-02
  6.75476700390311297E-02  6.91904961731887730E-02  7.08715431829665954E-02
  7.25916117759862201E-02  7.43515148177358032E-02  7.61520772570404153E-02
  7.79941360325703131E-02  7.98785399592198825E-02  8.18061495931369648E-02
  8.37778370741312228E-02  8.57944859441351487E-02  8.78569909403356109E-02
  8.99662577615385622E-02  9.21232028062690805E-02  9.43287528810513032E-02
  9.65838448772515790E-02  9.88894254148058732E-02  1.01246450451090944E-01
  1.03655884853133873E-01  1.06118701931290943E-01  1.08635882932461444E-01
  1.11208416490834128E-01  1.13837298034101753E-01  1.16523529143018098E-01
  1.19268116862092238E-01  1.22072072959156383E-01  1.24936413131480462E-01
  1.27862156156040713E-01  1.30850322981485856E-01  1.33901935759285606E-01
  1.37018016811482679E-01  1.40199587532418235E-01  1.43447667221741515E-01
  1.46763271845967547E-01  1.50147412725798124E-01  1.53601095146381039E-01
  1.57125316887643751E-01  1.60721066671808938E-01  1.64389322525174797E-01
  1.68131050051225306E-01  1.71947200612129786E-01  1.75838709415690408E-01
  1.79806493504809650E-01  1.83851449646571685E-01  1.87974452118069707E-01
  1.92176350386158462E-01  1.96457966678378060E-01  2.00820093442376141E-01
  2.05263490691253436E-01  2.09788883232391143E-01  2.14396957777438751E-01
  2.19088359931315924E-01  2.23863691058266534E-01  2.28723505023229440E-01
  2.33668304807021832E-01  2.38698538994120552E-01  2.43814598132123445E-01
  2.49016810962326973E-01  2.54305440521236714E-01  2.59680680113246354E-01
  2.65142649155195198E-01  2.70691388894018781E-01  2.76326857999269537E-01
  2.82048928032900492E-01  2.87857378799357022E-01  2.93751893579758727E-01
  2.99732054254720603E-01  3.05797336321208202E-01  3.11947103809733506E-01
  3.18180604109159715E-01  3.24496962707437997E-01  3.30895177857707057E-01
  3.37374115180371192E-01  3.43932502213053826E-01  3.50568922921678572E-01
  3.57281812187245640E-01  3.64069450284484730E-01  3.70929957370129904E-01
  3.77861288000191198E-01  3.84861225697336939E-01  3.91927377591331449E-01
  3.99057169157350344E-01  4.06247839078961115E-01  4.13496434264591095E-01
  4.20799805048381714E-01  4.28154600608489588E-01  4.35557264638070707E-01
  4.43004031306417578E-01  4.50490921549976775E-01  4.58013739735221248E-01
  4.65568070737622630E-01  4.73149277483196129E-01  4.80752499001272149E-01
  4.88372649039285123E-01  4.96004415292371270E-01  5.03642259302490958E-01
  5.11280417083513794E-01  5.18912900530259180E-01  5.26533499670793326E-01
  5.34135785822414499E-01  5.41713115712465498E-01  5.49258636624571084E-01
  5.56765292632168229E-01  5.64225831979840553E-01  5.71632815671730077E-01
  5.78978627324529205E-01  5.86255484339955113E-01  5.93455450448214461E-01
  6.00570449669673878E-01  6.07592281736650586E-01  6.14512639010867834E-01
  6.21323124924546777E-01  6.28015273964234066E-01  6.34580573206210419E-01
  6.41010485400520080E-01  6.47296473587282484E-01  6.53430027213784181E-01
  6.59402689703888822E-01  6.65206087412371971E-01  6.70831959875823780E-01
  6.76272191248670662E-01  6.81518842787563361E-01  6.86564186219791206E-01
  6.91400737801505016E-01  6.96021292839305916E-01  7.00418960414748937E-01
  7.04587198012597393E-01  7.08519845715625984E-01  7.12211159589123177E-01
  7.15655843833018501E-01  7.18849081235221621E-01  7.21786561413419014E-01
  7.24464506285115606E-01  7.26879692157582635E-01  7.29029467781136642E-01
  7.30911767661411527E-01  7.32525119879783748E-01  7.33868647626658377E-01
  7.34942063610954932E-01  7.35745656471916143E-01  7.36280268287582196E-01
  7.36547262249310442E-01  7.36548479555158675E-01  7.36286184568499480E-01
  7.35762997293770593E-01  7.34981812240855126E-01  7.33945702785429588E-01
  7.32657810187041347E-01  7.31121216502220284E-01  7.29338800729162351E-01
  7.27313077645323491E-01  7.25046018953810711E-01  7.22538856548258890E-01
  7.19791867916974470E-01  7.16804143970860230E-01  7.13573339878775692E-01
  7.10095409834869296E-01  7.06364327073325415E-01  7.02371790966840659E-01
  6.98107977983883909E-01  6.93572354174752159E-01  6.88771106642052433E-01
  6.83710747377410333E-01  6.78398002419553281E-01  6.72839799954766060E-01
  6.67043258430327080E-01  6.61015674673426146E-01  6.54764512036032365E-01
  6.48297388584978540E-01  6.41622065353220417E-01  6.34746434664042347E-01
  6.27678508538692670E-01  6.20426407190372564E-01  6.12998347605746230E-01
  6.05402632214596781E-01  5.97647637639223239E-01  5.89741803515312357E-01
  5.81693621375708014E-01  5.73511623581448804E-01  5.65204372283237388E-01
  5.56780448397245831E-01  5.48248440577735030E-01  5.39616934169256823E-01
  5.30894500122428337E-01  5.22089683859453979E-01  5.13210994079197125E-01
  5.04266891494699721E-01  4.95265777503318294E-01  4.86215982794365176E-01
  4.77125755907031213E-01  4.68003251759162631E-01  4.58856520175762284E-01
  4.49693494454757259E-01  4.40521980016033099E-01  4.31349643187917742E-01
  4.22184000192761755E-01  4.13032406399639673E-01  4.03902045917372776E-01
  3.94799921604564563E-01  3.85732845575166072E-01  3.76707430277898381E-01
  3.67730080225078415E-01  3.58806984444595856E-01  3.49944109721308017E-01
  3.41147194684625010E-01  3.32421744792410823E-01  3.23773028250095962E-01
  3.15206072892356581E-01  3.06725664042592716E-01  2.98336343352947064E-01
  2.90042408615044656E-01  2.81847914519328280E-01  2.73756674328988037E-01
  2.65772262423388250E-01  2.57898017655622314E-01  2.50137047459646822E-01
  2.42492232634418381E-01  2.34966232725688118E-01  2.27561491920704018E-01
  2.20280245366961197E-01  2.13124525823528893E-01  2.06096170552252045E-01
  1.99196828356323519E-01  1.92427966675392220E-01  1.85790878649449043E-01
  1.79286690068250654E-01  1.72916366129004045E-01  1.66680717932135403E-01
  1.60580408652937212E-01  1.54615959337274483E-01  1.48787754279586654E-01
  1.43096045952710499E-01  1.37540959470891178E-01  1.32122496579381160E-01
  1.26840539176118317E-01  1.21694852382648905E-01  1.16685087192561279E-01
  1.11810782735796921E-01  1.07071368206058351E-01  1.02466164505957275E-01
  9.79943856702077953E-02  9.36551401311063320E-02  8.94474318925256306E-02
  8.53701616788070661E-02  8.14221281232864191E-02  7.76020290578459809E-02
  7.39084629601045734E-02  7.03399306087942600E-02  6.68948369908491103E-02
  6.35714934959643596E-02  6.03681204261844670E-02  5.72828498399408081E-02
  5.43137287414979658E-02  5.14587226172859569E-02  4.87157193158774607E-02
  4.60825332597239665E-02  4.35569099706549154E-02  4.11365308858923431E-02
  3.88190184367683683E-02  3.66019413586588863E-02  3.44828201977932583E-02
  3.24591329785841459E-02  3.05283209938759306E-02  2.86877946799614404E-02
  2.69349395383186099E-02  2.52671220666735481E-02  2.36816956631522545E-02
  2.21760064688439722E-02  2.07473991159951264E-02  1.93932223512362813E-02
  1.81108345056110107E-02  1.68976087857162505E-02  1.57509383628778796E-02
  1.46682412399615648E-02  1.36469648781061131E-02  1.26845905683153747E-02
  1.17786375356099642E-02  1.09266667661114952E-02  1.01262845478870787E-02
  9.37514572187308354E-03  8.67095663981006133E-03  8.01147782796800614E-03
  7.39452635760051279E-03  6.81797792483208095E-03  6.27976864429309178E-03
  5.77789656228568527E-03  5.31042289658296800E-03  4.87547301113940533E-03
  4.47123713502933871E-03  4.09597083582886792E-03  3.74799525842842672E-03
  3.42569714090659120E-03  3.12752861962204256E-03  2.85200683609225731E-03
  2.59771335853222667E-03  2.36329343113046882E-03  2.14745506425011341E-03
  1.94896797876572647E-03  1.76666241768674154E-03  1.59942783808697054E-03
  1.44621149615653381E-03  1.30601693797364115E-03  1.17790240840710369E-03
  1.06097918929809920E-03  9.54409878949168252E-04  8.57406624014072955E-04
  7.69229314140521068E-04  6.89183749370771387E-04  6.16619789771933181E-04
  5.50929496215447337E-04  4.91545270659420248E-04  4.37938003713585883E-04
  3.89615236686781722E-04  3.46119344736930067E-04  3.07025747165440733E-04
  2.71941150326254310E-04  2.40501828056925688E-04  2.12371943987911673E-04
  1.87241919549799253E-04  1.64826850978074246E-04  1.44864978113966612E-04
  1.27116207319209333E-04  1.11360690364121600E-04  9.73974607134348800E-05
                              </PP_PSWFC.3>
 <PP_PSWFC.4 type="real" size="   999" l="1" columns="3" label= "0P">
  8.93261700952341144E-09  9.15874728466567122E-09  9.39060207492343581E-09
  9.62832629708401137E-09  9.87206853652052960E-09  1.01219811400625873E-08
  1.03782203112179979E-08  1.06409462078050051E-08  1.09103230420561323E-08
  1.11865191832562763E-08  1.14697072629788059E-08  1.17600642829859533E-08
  1.20577717258607211E-08  1.23630156684393452E-08  1.26759868981153993E-08
  1.29968810320880207E-08  1.33258986396291234E-08  1.36632453674455792E-08
  1.40091320682151059E-08  1.43637749323762063E-08  1.47273956232539583E-08
  1.51002214156069136E-08  1.54824853376812302E-08  1.58744263168607887E-08
  1.62762893290046523E-08  1.66883255515648543E-08  1.71107925205804639E-08
  1.75439542916459574E-08  1.79880816049545686E-08  1.84434520545196763E-08
  1.89103502616799476E-08  1.93890680529971054E-08  1.98799046426567970E-08
  2.03831668194872882E-08  2.08991691387124564E-08  2.14282341185587419E-08
  2.19706924418397482E-08  2.25268831626435835E-08  2.30971539182526462E-08
  2.36818611464284106E-08  2.42813703081961735E-08  2.48960561162703744E-08
  2.55263027692619588E-08  2.61725041918149449E-08  2.68350642808223708E-08
  2.75143971578744492E-08  2.82109274280983695E-08  2.89250904455499858E-08
  2.96573325853242499E-08  3.04081115225542615E-08  3.11778965184726551E-08
  3.19671687137153926E-08  3.27764214290499285E-08  3.36061604737168090E-08
  3.44569044615768118E-08  3.53291851352612497E-08  3.62235476985282575E-08
  3.71405511570329343E-08  3.80807686677236303E-08  3.90447878970838973E-08
  4.00332113884426620E-08  4.10466569385834377E-08  4.20857579838872622E-08
  4.31511639962506018E-08  4.42435408890267443E-08  4.53635714332424772E-08
  4.65119556843524103E-08  4.76894114197959936E-08  4.88966745876314891E-08
  5.01344997665275290E-08  5.14036606373987108E-08  5.27049504669813457E-08
  5.40391826036503153E-08  5.54071909857880568E-08  5.68098306630233204E-08
  5.82479783306642648E-08  5.97225328776611238E-08  6.12344159484408840E-08
  6.27845725189641020E-08  6.43739714873662062E-08  6.60036062795493806E-08
  6.76744954701052544E-08  6.93876834189570679E-08  7.11442409241178444E-08
  7.29452658909741752E-08  7.47918840185115230E-08  7.66852495029119999E-08
  7.86265457589642157E-08  8.06169861597351560E-08  8.26578147949678023E-08
  8.47503072486763165E-08  8.68957713964268140E-08  8.90955482228015553E-08
  9.13510126595565765E-08  9.36635744449989504E-08  9.60346790051169786E-08
  9.84658083570177646E-08  1.00958482035235748E-07  1.03514258041489784E-07
  1.06134733818483677E-07  1.08821547248357476E-07  1.11576377676417559E-07
  1.14400946960780521E-07  1.17297020548588023E-07  1.20266408579468657E-07
  1.23310967016931260E-07  1.26432598808401074E-07  1.29633255074622364E-07
  1.32914936329170505E-07  1.36279693728836803E-07  1.39729630355664875E-07
  1.43266902531443953E-07  1.46893721165477824E-07  1.50612353136472634E-07
  1.54425122709408120E-07  1.58334412988274691E-07  1.62342667405589971E-07
  1.66452391249619977E-07  1.70666153230261169E-07  1.74986587084568287E-07
  1.79416393222919292E-07  1.83958340416855911E-07  1.88615267529653872E-07
  1.93390085290703326E-07  1.98285778114799641E-07  2.03305405967497569E-07
  2.08452106277687000E-07  2.13729095898581991E-07  2.19139673118352467E-07
  2.24687219721658260E-07  2.30375203103369087E-07  2.36207178435790301E-07
  2.42186790890756923E-07  2.48317777917983099E-07  2.54603971581073623E-07
  2.61049300952687840E-07  2.67657794570330571E-07  2.74433582954306308E-07
  2.81380901189425507E-07  2.88504091572059146E-07  2.95807606324207364E-07
  3.03296010376275859E-07  3.10973984220285831E-07  3.18846326835335938E-07
  3.26917958687101344E-07  3.35193924803276780E-07  3.43679397926869668E-07
  3.52379681749316041E-07  3.61300214225450969E-07  3.70446570972396454E-07
  3.79824468754474935E-07  3.89439769056377171E-07  3.99298481746745071E-07
  4.09406768834526546E-07  4.19770948320415786E-07  4.30397498145781483E-07
  4.41293060241581829E-07  4.52464444679755895E-07  4.63918633929719197E-07
  4.75662787222614933E-07  4.87704245026043033E-07  5.00050533632056523E-07
  5.12709369861318347E-07  5.25688665886335454E-07  5.38996534176788239E-07
  5.52641292570065435E-07  5.66631469470142164E-07  5.80975809178075915E-07
  5.95683277357445654E-07  6.10763066638138319E-07  6.26224602362006129E-07
  6.42077548473968233E-07  6.58331813562233159E-07  6.74997557051465856E-07
  6.92085195552682525E-07  7.09605409373935805E-07  7.27569149195791592E-07
  7.45987642915803970E-07  7.64872402666256129E-07  7.84235232009549187E-07
  8.04088233315754128E-07  8.24443815326912695E-07  8.45314700912805207E-07
  8.66713935023130290E-07  8.88654892840884776E-07  9.11151288142250782E-07
  9.34217181868019090E-07  9.57866990912065464E-07  9.82115497132264916E-07
  1.00697785658952454E-06  1.03246960902072376E-06  1.05860668755139931E-06
  1.08540542865439925E-06  1.11288258236052146E-06  1.14105532272772444E-06
  1.16994125857531554E-06  1.19955844448991491E-06  1.22992539210995236E-06
  1.26106108169591109E-06  1.29298497399341397E-06  1.32571702239667250E-06
  1.35927768541975914E-06  1.39368793948368088E-06  1.42896929202709573E-06
  1.46514379494894562E-06  1.50223405839137420E-06  1.54026326487151817E-06
  1.57925518377113161E-06  1.61923418619289356E-06  1.66022526019288544E-06
  1.70225402639862247E-06  1.74534675402245699E-06  1.78953037728035197E-06
  1.83483251222630918E-06  1.88128147401288699E-06  1.92890629458876628E-06
  1.97773674084419201E-06  2.02780333321583374E-06  2.07913736476261991E-06
  2.13177092072440167E-06  2.18573689857582984E-06  2.24106902858773616E-06
  2.29780189490916253E-06  2.35597095718296840E-06  2.41561257270866173E-06
  2.47676401916623591E-06  2.53946351791527384E-06  2.60375025788377367E-06
  2.66966442006183905E-06  2.73724720261526921E-06  2.80654084663492349E-06
  2.87758866253793108E-06  2.95043505713715725E-06  3.02512556139596792E-06
  3.10170685888557124E-06  3.18022681496272126E-06  3.26073450668588831E-06
  3.34328025348899093E-06  3.42791564863134940E-06  3.51469359144390682E-06
  3.60366832039163222E-06  3.69489544697288868E-06  3.78843199047698523E-06
  3.88433641362137074E-06  3.98266865909124231E-06  4.08349018700375409E-06
  4.18686401332085724E-06  4.29285474923433598E-06  4.40152864154791527E-06
  4.51295361408145356E-06  4.62719931012341161E-06  4.74433713595761158E-06
  4.86444030549226289E-06  4.98758388601816600E-06  5.11384484512563024E-06
  5.24330209880873778E-06  5.37603656078749196E-06  5.51213119307815668E-06
  5.65167105784400731E-06  5.79474337055834142E-06  5.94143755451330710E-06
  6.09184529670845396E-06  6.24606060515402822E-06  6.40417986762460755E-06
  6.56630191190028419E-06  6.73252806753224308E-06  6.90296222917214326E-06
  7.07771092150434812E-06  7.25688336582190872E-06  7.44059154828734217E-06
  7.62895028992180618E-06  7.82207731836527123E-06  8.02009334145359119E-06
  8.22312212265761402E-06  8.43129055843181815E-06  8.64472875752105192E-06
  8.86357012227440222E-06  9.08795143201717535E-06  9.31801292853346714E-06
  9.55389840371238218E-06  9.79575528941207158E-06  1.00437347495993315E-05
  1.02979917748206279E-05  1.05586852790644540E-05  1.08259781990756320E-05
  1.11000375961829354E-05  1.13810347607041790E-05  1.16691453189942761E-05
  1.19645493432019491E-05  1.22674314638052183E-05  1.25779809849944490E-05
  1.28963920029764929E-05  1.32228635272726129E-05  1.35575996050866063E-05
  1.39008094488203823E-05  1.42527075668175812E-05  1.46135138974156719E-05
  1.49834539463906857E-05  1.53627589278811983E-05  1.57516659088785408E-05
  1.61504179573735951E-05  1.65592642942540627E-05  1.69784604490446244E-05
  1.74082684195896829E-05  1.78489568357769748E-05  1.83008011274048298E-05
  1.87640836962978327E-05  1.92390940927777722E-05  1.97261291966016936E-05
  2.02254934024779969E-05  2.07374988102779587E-05  2.12624654200607751E-05
  2.18007213320339476E-05  2.23526029515741116E-05  2.29184551994362802E-05
  2.34986317272819944E-05  2.40934951386627785E-05  2.47034172155942605E-05
  2.53287791508649803E-05  2.59699717862236839E-05  2.66273958565924983E-05
  2.73014622404621967E-05  2.79925922166215392E-05  2.87012177273834029E-05
  2.94277816484723759E-05  3.01727380657403215E-05  3.09365525588841631E-05
  3.17197024923428398E-05  3.25226773135538466E-05  3.33459788587576472E-05
  3.41901216665382296E-05  3.50556332992970867E-05  3.59430546728617219E-05
  3.68529403944318798E-05  3.77858591090776246E-05  3.87423938550033353E-05
  3.97231424277988426E-05  4.07287177539073346E-05  4.17597482735410612E-05
  4.28168783332836189E-05  4.39007685886248696E-05  4.50120964166794249E-05
  4.61515563393454341E-05  4.73198604571676472E-05  4.85177388941760316E-05
  4.97459402539768834E-05  5.10052320873804186E-05  5.22964013718580270E-05
  5.36202550031261843E-05  5.49776202991646932E-05  5.63693455169833531E-05
  5.77963003824581381E-05  5.92593766335702276E-05  6.07594885773830515E-05
  6.22975736611033919E-05  6.38745930575906044E-05  6.54915322656674680E-05
  6.71494017256166160E-05  6.88492374502387835E-05  7.05921016718707561E-05
  7.23790835057659611E-05  7.42112996302444827E-05  7.60898949840479278E-05
  7.80160434813213739E-05  7.99909487446754850E-05  8.20158448567817632E-05
  8.40919971309726311E-05  8.62207029013196529E-05  8.84032923326897127E-05
  9.06411292512753608E-05  9.29356119961232161E-05  9.52881742921873176E-05
  9.77002861454483358E-05  1.00173454760662454E-04  1.02709225482301350E-04
  1.05309182759278080E-04  1.07974951134052344E-04  1.10708196256735877E-04
  1.13510625924818231E-04  1.16383991149177665E-04  1.19330087247017022E-04
  1.22350754962424952E-04  1.25447881615243205E-04  1.28623402278964634E-04
  1.31879300988388648E-04  1.35217611977783909E-04  1.38640420950330543E-04
  1.42149866379625591E-04  1.45748140844066811E-04  1.49437492394937120E-04
  1.53220225959039999E-04  1.57098704776758240E-04  1.61075351876429279E-04
  1.65152651585947423E-04  1.69333151082534070E-04  1.73619461981638077E-04
  1.78014261965943967E-04  1.82520296455514414E-04  1.87140380320077678E-04
  1.91877399634543901E-04  1.96734313478826858E-04  2.01714155783084024E-04
  2.06820037219525017E-04  2.12055147141954140E-04  2.17422755574249156E-04
  2.22926215249005089E-04  2.28568963697610276E-04  2.34354525393037276E-04
  2.40286513946682260E-04  2.46368634360606426E-04  2.52604685336575545E-04
  2.58998561643312888E-04  2.65554256543444297E-04  2.72275864281623691E-04
  2.79167582635365876E-04  2.86233715530189456E-04  2.93478675720637604E-04
  3.00906987538893198E-04  3.08523289712602379E-04  3.16332338253716872E-04
  3.24339009420098801E-04  3.32548302751703049E-04  3.40965344183229429E-04
  3.49595389235149770E-04  3.58443826285062409E-04  3.67516179921403266E-04
  3.76818114381562012E-04  3.86355437076519410E-04  3.96134102204158411E-04
  4.06160214453495625E-04  4.16440032802057095E-04  4.26979974408797647E-04
  4.37786618604847101E-04  4.48866710984645583E-04  4.60227167599871166E-04
  4.71875079258787702E-04  4.83817715933611270E-04  4.96062531278609019E-04
  5.08617167261660522E-04  5.21489458912148822E-04  5.34687439188042649E-04
  5.48219343965151355E-04  5.62093617151579461E-04  5.76318915930537179E-04
  5.90904116134624113E-04  6.05858317754925154E-04  6.21190850588217462E-04
  6.36911280025739671E-04  6.53029412987030382E-04  6.69555304002421498E-04
  6.86499261447900033E-04  7.03871853936068460E-04  7.21683916867096875E-04
  7.39946559143651091E-04  7.58671170053751612E-04  7.77869426325854870E-04
  7.97553299360274307E-04  8.17735062641394882E-04  8.38427299335059548E-04
  8.59642910075758657E-04  8.81395120948246847E-04  9.03697491668413520E-04
  9.26563923968223369E-04  9.50008670189905215E-04  9.74046342094306446E-04
  9.98691919888853794E-04  1.02396076148042578E-03  1.04986861195861423E-03
  1.07643161331507872E-03  1.10366631440473239E-03  1.13158968115465016E-03
  1.16021910702677968E-03  1.18957242374059455E-03  1.21966791226209314E-03
  1.25052431406554097E-03  1.28216084267460638E-03  1.31459719548974465E-03
  1.34785356590864003E-03  1.38195065574692535E-03  1.41690968796637663E-03
  1.45275241971798918E-03  1.48950115570764020E-03  1.52717876189197737E-03
  1.56580867951255291E-03  1.60541493947635987E-03  1.64602217709100204E-03
  1.68765564716305940E-03  1.73034123946831154E-03  1.77410549460270059E-03
  1.81897562022317275E-03  1.86497950768755097E-03  1.91214574910307045E-03
  1.96050365479322327E-03  2.01008327119272601E-03  2.06091539918093741E-03
  2.11303161286387035E-03  2.16646427881543027E-03  2.22124657578883769E-03
  2.27741251490891014E-03  2.33499696035689101E-03  2.39403565055888029E-03
  2.45456521989008544E-03  2.51662322090641334E-03  2.58024814711595683E-03
  2.64547945630278945E-03  2.71235759441564549E-03  2.78092402003484286E-03
  2.85122122943029998E-03  2.92329278222449706E-03  2.99718332767400127E-03
  3.07293863158377171E-03  3.15060560386841524E-03  3.23023232677516073E-03
  3.31186808378353603E-03  3.39556338919656591E-03  3.48137001843958635E-03
  3.56934103908160142E-03  3.65953084259623218E-03  3.75199517687769754E-03
  3.84679117952906914E-03  3.94397741193939274E-03  4.04361389416720875E-03
  4.14576214064756553E-03  4.25048519674087102E-03  4.35784767614131284E-03
  4.46791579916333732E-03  4.58075743192511847E-03  4.69644212644771287E-03
  4.81504116168931812E-03  4.93662758553451396E-03  5.06127625775764593E-03
  5.18906389398146074E-03  5.32006911065059131E-03  5.45437247104110182E-03
  5.59205653232689240E-03  5.73320589372434790E-03  5.87790724573660720E-03
  6.02624942051925572E-03  6.17832344338953027E-03  6.33422258550104741E-03
  6.49404241770703931E-03  6.65788086563394617E-03  6.82583826598904490E-03
  6.99801742412462999E-03  7.17452367288230579E-03  7.35546493274034235E-03
  7.54095177328819016E-03  7.73109747605118906E-03  7.92601809868956689E-03
  8.12583254059539954E-03  8.33066260991116234E-03  8.54063309199402237E-03
  8.75587181934955709E-03  8.97650974305866378E-03  9.20268100572129225E-03
  9.43452301594065179E-03  9.67217652437161839E-03  9.91578570135611889E-03
  1.01654982161685156E-02  1.04214653178944152E-02  1.06838419179642700E-02
  1.09527866743644176E-02  1.12284620775472601E-02  1.15110345380605820E-02
  1.18006744759178352E-02  1.20975564117283708E-02  1.24018590596067201E-02
  1.27137654218791377E-02  1.30334628856060199E-02  1.33611433209341653E-02
  1.36970031812968848E-02  1.40412436054745370E-02  1.43940705215283345E-02
  1.47556947526205177E-02  1.51263321247286104E-02  1.55062035762637569E-02
  1.58955352695996574E-02  1.62945587045153148E-02  1.67035108335564786E-02
  1.71226341793133049E-02  1.75521769536153213E-02  1.79923931786362817E-02
  1.84435428099030720E-02  1.89058918611977322E-02  1.93797125313397468E-02
  1.98652833328298445E-02  2.03628892223368628E-02  2.08728217330019124E-02
  2.13953791085302741E-02  2.19308664390403633E-02  2.24795957986291400E-02
  2.30418863846130473E-02  2.36180646583947704E-02  2.42084644879024327E-02
  2.48134272915412277E-02  2.54333021835898808E-02  2.60684461209706765E-02
  2.67192240513078570E-02  2.73860090621922576E-02  2.80691825315488482E-02
  2.87691342790061116E-02  2.94862627181512876E-02  3.02209750095450390E-02
  3.09736872143649283E-02  3.17448244485263320E-02  3.25348210371287361E-02
  3.33441206690536576E-02  3.41731765515325275E-02  3.50224515644898260E-02
  3.58924184144468680E-02  3.67835597877637366E-02  3.76963685029734902E-02
  3.86313476619504839E-02  3.95890107996357613E-02  4.05698820320209361E-02
  4.15744962020755324E-02  4.26033990232787263E-02  4.36571472203932734E-02
  4.47363086671038745E-02  4.58414625201011908E-02  4.69731993491883590E-02
  4.81321212629354581E-02  4.93188420294032315E-02  5.05339871914026878E-02
  5.17781941757441272E-02  5.30521123958859475E-02  5.43564033473589447E-02
  5.56917406953068087E-02  5.70588103534428806E-02  5.84583105536832792E-02
  5.98909519056695372E-02  6.13574574453556246E-02  6.28585626717757945E-02
  6.43950155710722727E-02  6.59675766267991126E-02  6.75770188154628665E-02
  6.92241275862191807E-02  7.09097008235558962E-02  7.26345487917560706E-02
  7.43994940598495247E-02  7.62053714057049220E-02  7.80530276978265297E-02
  7.99433217533568746E-02  8.18771241706965913E-02  8.38553171350825410E-02
  8.58787941953486622E-02  8.79484600100348679E-02  9.00652300608913298E-02
  9.22300303317327153E-02  9.44437969504914598E-02  9.67074757922050804E-02
  9.90220220405628043E-02  1.01388399705514484E-01  1.03807581094312262E-01
  1.06280546233241999E-01  1.08808282237144893E-01  1.11391782623698588E-01
  1.14032046569281897E-01  1.16730078103074814E-01  1.19486885235911347E-01
  1.22303479020203928E-01  1.25180872537114463E-01  1.28120079806936071E-01
  1.31122114618481694E-01  1.34187989273068548E-01  1.37318713238488127E-01
  1.40515291708132706E-01  1.43778724060233426E-01  1.47110002211933655E-01
  1.50510108862691699E-01  1.53980015621238225E-01  1.57520681010104385E-01
  1.61133048341424778E-01  1.64818043457456903E-01  1.68576572329003971E-01
  1.72409518504594766E-01  1.76317740403009959E-01  1.80302068441411945E-01
  1.84363301991014777E-01  1.88502206151914153E-01  1.92719508338324297E-01
  1.97015894665177604E-01  2.01392006126603157E-01  2.05848434556505394E-01
  2.10385718361025348E-01  2.15004338012326685E-01  2.19704711292710547E-01
  2.24487188277678523E-01  2.29352046046126273E-01  2.34299483105482681E-01
  2.39329613519074030E-01  2.44442460722661070E-01  2.49637951016588366E-01
  2.54915906719531349E-01  2.60276038969417700E-01  2.65717940156571186E-01
  2.71241075973705670E-01  2.76844777066903747E-01  2.82528230271333003E-01
  2.88290469414817452E-01  2.94130365672040761E-01  3.00046617451661002E-01
  3.06037739798158126E-01  3.12102053289765868E-01  3.18237672413423045E-01
  3.24442493397238296E-01  3.30714181480539771E-01  3.37050157601167466E-01
  3.43447584479318668E-01  3.49903352076861462E-01  3.56414062410723764E-01
  3.62976013698628031E-01  3.69585183815231366E-01  3.76237213036397566E-01
  3.82927386049262741E-01  3.89650613205485830E-01  3.96401410995062486E-01
  4.03173881718009386E-01  4.09961692331266614E-01  4.16758052448208072E-01
  4.23555691468399276E-01  4.30346834815386048E-01  4.37123179260700823E-01
  4.43875867312662320E-01  4.50595460649071244E-01  4.57271912573626815E-01
  4.63894539476346179E-01  4.70451991279508652E-01  4.76932220851370658E-01
  4.83322452371201861E-01  4.89609148630301749E-01  4.95777977255331459E-01
  5.01813775841650767E-01  5.07700515986274858E-01  5.13421266212000238E-01
  5.18958153776282627E-01  5.24292325361001010E-01  5.29403906641479294E-01
  5.34271960736150686E-01  5.38874445541099201E-01  5.43188169956842049E-01
  5.47188749018200804E-01  5.50850557941760743E-01  5.54146685109183634E-01
  5.57048884008807588E-01  5.59527524162385936E-01  5.61551541068086024E-01
  5.63088385196096386E-01  5.64103970077839301E-01  5.64562619535295185E-01
  5.64427014101950508E-01  5.63658136692645750E-01  5.62215217585937066E-01
  5.60055678787847233E-01  5.57135077852302207E-01  5.53407051239577119E-01
  5.48823257300467660E-01  5.43333318980070423E-01  5.36884766341529263E-01
  5.29422979016244244E-01  5.20891128693273253E-01  5.11230121766771517E-01
  5.00378542266241677E-01  4.88272595199782000E-01  4.74846050446256218E-01
  4.60030187337017504E-01  4.43753740072571345E-01  4.25942844123649855E-01
  4.06520983769691036E-01  3.85408940930963728E-01  3.62524745452465880E-01
  3.37783626999980990E-01  3.11097968729032393E-01  2.82377262888065639E-01
  2.51528068516883474E-01  2.18453971400152380E-01  1.83055546429120419E-01
  1.45230322529557837E-01  1.04872750306603577E-01  6.18741725534830006E-02
  1.61227977673805631E-02 -3.24963231878142092E-02 -8.41013171362684914E-02
 -1.38813505229193224E-01 -1.96757416036585198E-01 -2.58060794959950213E-01
 -3.22854609831438155E-01 -3.91273052558437195E-01 -4.63453536662360499E-01
 -5.39536690543614861E-01 -6.19666346282379155E-01 -7.03989523752292623E-01
 -7.92656409783281890E-01 -8.85820332054704451E-01 -9.83637727331986955E-01
 -1.08626810357374559E+00 -1.19387399533068495E+00 -1.30662091172840733E+00
 -1.42467727617070228E+00 -1.54821435671323271E+00 -1.67740618583305512E+00
 -1.81242946806854288E+00 -1.95346347369389228E+00 -2.10068991622922274E+00
 -2.25429281118717562E+00 -2.41445831298282076E+00 -2.58137452639436038E+00
 -2.75523128834942765E+00 -2.93621991511847069E+00 -3.12453290921713878E+00
 -3.32036361944610059E+00 -3.52390584652523797E+00 -3.73535338570199249E+00
 -3.95489949652783057E+00 -4.18273628869742353E+00 -4.41905401143044863E+00
 -4.66404023234490239E+00 -4.91787889012460511E+00 -5.18074920352778445E+00
 -5.45282441742291368E+00 -5.73427036458632777E+00 -6.02524381996754865E+00
 -6.32589062204349339E+00 -6.63634353377072816E+00 -6.95671981353707114E+00
 -7.28711846444387401E+00 -7.62761712828558469E+00 -7.97826858888069967E+00
 -8.33909684770549475E+00 -8.71009273359285530E+00 -9.09120900742253824E+00
 -9.48235492241462197E+00 -9.88339020110276856E+00 -1.02941183932017797E+01
 -1.07142953732240169E+01 -1.11437908926351366E+01 -1.15825560914692218E+01
 -1.20305293566537141E+01 -1.24876341549458640E+01 -1.29537783153131194E+01
 -1.34288532948751289E+01 -1.39127334284183561E+01 -1.44052751622631696E+01
 -1.49063162734025205E+01 -1.54156750749086768E+01 -1.59331496086586242E+01
 -1.64585168265363926E+01 -1.69915317612063603E+01 -1.75319266876123230E+01
 -1.80794102764186633E+01 -1.86336667404426031E+01 -1.91943549751738054E+01
 -1.97611076943119315E+01 -2.03335305611831991E+01 -2.09112013167562374E+01
 -2.14936689048040748E+01 -2.20804525945943020E+01 -2.26710411013139215E+01
 -2.32648917042641408E+01 -2.38614293627158531E+01 -2.44600458292164582E+01
 -2.50600987600503444E+01 -2.56609108226424638E+01 -2.62617687997709623E+01
 -2.68619226907321149E+01 -2.74605848099921417E+01 -2.80569288844317164E+01
 -2.86500891510362656E+01 -2.92391594578422129E+01 -2.98231923721081991E+01
 -3.04011983010536575E+01 -3.09721446320936202E+01 -3.15349549012770218E+01
 -3.20885080006034187E+01 -3.26316374370114488E+01 -3.31631306580846754E+01
 -3.36817284618927744E+01 -3.41861245106907532E+01 -3.46749649706342709E+01
 -3.51468483021270615E+01 -3.56003252275965067E+01 -3.60338989056678543E+01
 -3.64460253426824821E+01 -3.68351140742533829E+01 -3.71995291510312782E+01
 -3.75375904640239710E+01 -3.78475754456271218E+01 -3.81277211829486902E+01
 -3.83762269800001903E+01 -3.85912574048545665E+01 -3.87709458568962120E+01
 -3.89133986877866960E+01 -3.90166999077160455E+01 -3.90789165058859638E+01
 -3.90981044109725673E+01 -3.90723151135394318E+01 -3.89996029680367755E+01
 -3.88780331871551539E+01 -3.87056905359475394E+01 -3.84806887273551723E+01
 -3.82011805146481507E+01 -3.78653684700290967E+01 -3.74715164319233835E+01
 -3.70179615966651880E+01 -3.65031272246598846E+01 -3.59255359242792736E+01
 -3.52838234709433678E+01 -3.45767531134018782E+01 -3.38032303142671395E+01
 -3.29623178674523558E+01 -3.20532513313346286E+01 -3.10754547131822605E+01
 -3.00285563375866751E+01 -2.89124048292188469E+01 -2.77270851380690964E+01
 -2.64729345332338006E+01 -2.51505584891333953E+01 -2.37608463855503906E+01
 -2.23049869398904512E+01 -2.07844832863921525E+01 -1.92011676124576987E+01
 -1.75572152567178961E+01 -1.58551581667394128E+01 -1.40978976063712018E+01
 -1.22887159935468997E+01 -1.04312877389250218E+01 -8.52968894412408929E+00
 -6.58840580542189524E+00 -4.61234155502576293E+00 -2.60682175773315628E+00
 -5.77597765172975119E-01  1.46915188577699385E+00  3.52682235957385126E+00
  5.58838593841472786E+00  7.64639822839735483E+00  9.69300742963167217E+00
  1.17199669574620806E+01  1.37186517131969818E+01  1.56800783117847669E+01
  1.75949295801833685E+01  1.94535836432084004E+01  2.12461479127867818E+01
  2.29624982911703341E+01  2.45923238880945760E+01  2.61251775353568725E+01
  2.75505323591316476E+01  2.88578446396965980E+01  3.00366231493676210E+01
  3.10765051114735940E+01  3.19673388653443915E+01  3.26992732537501638E+01
  3.32628536696636772E+01  3.36491246077787167E+01  3.38497384552990965E+01
  3.38570701465644746E+01  3.36643371707600565E+01  3.32657242752456881E+01
  3.26565120479853306E+01  3.18332083893202515E+01  3.07936816971824143E+01
  2.95372943917998008E+01  2.80650351974476280E+01  2.63796483817837846E+01
  2.44857579302931008E+01  2.23899844074496492E+01  2.01010520312225438E+01
  1.76298832680138915E+01  1.49896780463845065E+01  1.21959744961429468E+01
  9.26668795157135960E+00  6.22212482163112224E+00  3.08496783469790570E+00
 -1.19770879696772858E-01 -3.36483239417547653E+00 -6.62083270686388303E+00
 -9.85642684967381832E+00 -1.30385183817387098E+01 -1.61325168991095111E+01
 -1.91026456935040514E+01 -2.19123010782056937E+01 -2.45244641430219481E+01
 -2.69021647909599295E+01 -2.90089968502238662E+01 -3.08096818389828684E+01
 -3.22706775883530170E+01 -3.33608264063263391E+01 -3.40520358024508241E+01
 -3.43199830067537093E+01 -3.41448326306142818E+01 -3.35119548640752924E+01
 -3.24126296242617684E+01 -3.08447201135649962E+01 -2.88132973744638292E+01
 -2.63311957110542778E+01 -2.34194773665115648E+01 -2.01077836916092529E+01
 -1.64345493116406161E+01 -1.24470556045163807E+01 -8.20130025335971524E+00
                              </PP_PSWFC.4>
                             </PP_FULL_WFC> 
 <PP_RHOATOM type="real" size="   999" columns="3">
 -8.98548784420220330E-09 -9.21295654875950178E-09 -9.44618365082471941E-09
 -9.68531492491637064E-09 -9.93049983585206487E-09 -1.01818916321688637E-08
 -1.04396474419085942E-08 -1.07039283708277748E-08 -1.09748996030940510E-08
 -1.12527305045317917E-08 -1.15375947284809273E-08 -1.18296703243359297E-08
 -1.21291398488326229E-08 -1.24361904801519460E-08 -1.27510141349122503E-08
 -1.30738075881234748E-08 -1.34047725961779891E-08 -1.37441160229545857E-08
 -1.40920499691151893E-08 -1.44487919046748698E-08 -1.48145648049271684E-08
 -1.51895972898110354E-08 -1.55741237668058384E-08 -1.59683845774432922E-08
 -1.63726261475288008E-08 -1.67871011411656035E-08 -1.72120686186777755E-08
 -1.76477941985313020E-08 -1.80945502233544054E-08 -1.85526159301601457E-08
 -1.90222776248785908E-08 -1.95038288613075057E-08 -1.99975706245923776E-08
 -2.05038115193522517E-08 -2.10228679625675130E-08 -2.15550643813501948E-08
 -2.21007334157219455E-08 -2.26602161265242446E-08 -2.32338622085924649E-08
 -2.38220302093267521E-08 -2.44250877527948408E-08 -2.50434117695096398E-08
 -2.56773887320224300E-08 -2.63274148964805679E-08 -2.69938965503007854E-08
 -2.76772502661108494E-08 -2.83779031621216957E-08 -2.90962931690893148E-08
 -2.98328693040357542E-08 -3.05880919508992191E-08 -3.13624331482881346E-08
 -3.21563768845210978E-08 -3.29704194001341569E-08 -3.38050694980477260E-08
 -3.46608488615840002E-08 -3.55382923805360142E-08 -3.64379484854903887E-08
 -3.73603794906142846E-08 -3.83061619451191846E-08 -3.92758869936228089E-08
 -4.02701607456329265E-08 -4.12896046543850846E-08 -4.23348559052707356E-08
 -4.34065678140978351E-08 -4.45054102354345403E-08 -4.56320699812886422E-08
 -4.67872512503873973E-08 -4.79716760683235274E-08 -4.91860847388441303E-08
 -5.04312363065640067E-08 -5.17079090313919572E-08 -5.30169008749680860E-08
 -5.43590299994145284E-08 -5.57351352787128255E-08 -5.71460768230260603E-08
 -5.85927365162950323E-08 -6.00760185674425920E-08 -6.15968500755334789E-08
 -6.31561816092390829E-08 -6.47549878009734717E-08 -6.63942679560682638E-08
 -6.80750466773696544E-08 -6.97983745056476941E-08 -7.15653285762154619E-08
 -7.33770132921736821E-08 -7.52345610146956054E-08 -7.71391327707879804E-08
 -7.90919189789692986E-08 -8.10941401933171282E-08 -8.31470478663530492E-08
 -8.52519251312381935E-08 -8.74100876037706942E-08 -8.96228842046865943E-08
 -9.18916980027756902E-08 -9.42179470793426184E-08 -9.66030854145504434E-08
 -9.90486037962023329E-08 -1.01556030751529178E-07 -1.04126933502566060E-07
 -1.06762918945713472E-07 -1.09465634656094719E-07 -1.12236769917341748E-07
 -1.15078056777447547E-07 -1.17991271131347233E-07 -1.20978233830907595E-07
 -1.24040811823012517E-07 -1.27180919316460327E-07 -1.30400518978401672E-07
 -1.33701623161064927E-07 -1.37086295159536352E-07 -1.40556650501379111E-07
 -1.44114858268901016E-07 -1.47763142454894978E-07 -1.51503783352699766E-07
 -1.55339118981449496E-07 -1.59271546547403585E-07 -1.63303523942270613E-07
 -1.67437571279461897E-07 -1.71676272469235516E-07 -1.76022276833713415E-07
 -1.80478300762784548E-07 -1.85047129411926357E-07 -1.89731618443005125E-07
 -1.94534695809147301E-07 -1.99459363584792585E-07 -2.04508699842073531E-07
 -2.09685860574698525E-07 -2.14994081670535503E-07 -2.20436680934131791E-07
 -2.26017060160435198E-07 -2.31738707261007277E-07 -2.37605198444065062E-07
 -2.43620200449709424E-07 -2.49787472841736718E-07 -2.56110870357467400E-07
 -2.62594345317062706E-07 -2.69241950093827508E-07 -2.76057839647053969E-07
 -2.83046274118980144E-07 -2.90211621497490726E-07 -2.97558360346225146E-07
 -3.05091082603794673E-07 -3.12814496453863716E-07 -3.20733429267884372E-07
 -3.28852830622328214E-07 -3.37177775392296991E-07 -3.45713466923444441E-07
 -3.54465240284200798E-07 -3.63438565600319421E-07 -3.72639051473841062E-07
 -3.82072448488608539E-07 -3.91744652804517055E-07 -4.01661709842757565E-07
 -4.11829818064348224E-07 -4.22255332844315538E-07 -4.32944770443957075E-07
 -4.43904812083649728E-07 -4.55142308118766400E-07 -4.66664282321302724E-07
 -4.78477936269889325E-07 -4.90590653850944427E-07 -5.03010005873751510E-07
 -5.15743754802386473E-07 -5.28799859607421026E-07 -5.42186480740441530E-07
 -5.55911985234507643E-07 -5.69984951933709709E-07 -5.84414176855121514E-07
 -5.99208678686484151E-07 -6.14377704423061202E-07 -6.29930735147187217E-07
 -6.45877491954119208E-07 -6.62227942027899592E-07 -6.78992304871027393E-07
 -6.96181058691825069E-07 -7.13804946953503607E-07 -7.31874985089002972E-07
 -7.50402467385823082E-07 -7.69398974045128729E-07 -7.88876378419562362E-07
 -8.08846854434270103E-07 -8.29322884195780175E-07 -8.50317265793498227E-07
 -8.71843121298697694E-07 -8.93913904965976876E-07 -9.16543411642356289E-07
 -9.39745785389219306E-07 -9.63535528322519535E-07 -9.87927509676771539E-07
 -1.01293697509847695E-06 -1.03857955617482067E-06 -1.06487128020355511E-06
 -1.09182858021020942E-06 -1.11946830521887199E-06 -1.14780773078296330E-06
 -1.17686456978259028E-06 -1.20665698349519806E-06 -1.23720359294649102E-06
 -1.26852349054867140E-06 -1.30063625203327917E-06 -1.33356194868611094E-06
 -1.36732115989182554E-06 -1.40193498599612751E-06 -1.43742506149349596E-06
 -1.47381356854878572E-06 -1.51112325086108023E-06 -1.54937742787846878E-06
 -1.58860000937268481E-06 -1.62881551038265488E-06 -1.67004906653630188E-06
 -1.71232644976023326E-06 -1.75567408438703645E-06 -1.80011906367033631E-06
 -1.84568916671790600E-06 -1.89241287585334429E-06 -1.94031939441731717E-06
 -1.98943866501931440E-06 -2.03980138825145559E-06 -2.09143904187599349E-06
 -2.14438390049846131E-06 -2.19866905573887604E-06 -2.25432843691343481E-06
 -2.31139683223977042E-06 -2.36990991057897170E-06 -2.42990424372788342E-06
 -2.49141732927577238E-06 -2.55448761403941882E-06 -2.61915451809152596E-06
 -2.68545845939723106E-06 -2.75344087907428598E-06 -2.82314426729261757E-06
 -2.89461218982936834E-06 -2.96788931529620476E-06 -3.04302144305570034E-06
 -3.12005553184439120E-06 -3.19903972912027636E-06 -3.28002340115315585E-06
 -3.36305716387660009E-06 -3.44819291452081282E-06 -3.53548386404612707E-06
 -3.62498457039751019E-06 -3.71675097260063759E-06 -3.81084042572105035E-06
 -3.90731173670815942E-06 -4.00622520114640468E-06 -4.10764264093668879E-06
 -4.21162744293143116E-06 -4.31824459854762269E-06 -4.42756074438230120E-06
 -4.53964420385620638E-06 -4.65456502991123928E-06 -4.77239504878870210E-06
 -4.89320790491548580E-06 -5.01707910692626527E-06 -5.14408607485061727E-06
 -5.27430818849417268E-06 -5.40782683704447597E-06 -5.54472546993213815E-06
 -5.68508964897924604E-06 -5.82900710186767836E-06 -5.97656777696038425E-06
 -6.12786389951031939E-06 -6.28299002929175792E-06 -6.44204311969009948E-06
 -6.60512257828728989E-06 -6.77233032898019865E-06 -6.94377087567127089E-06
 -7.11955136757092463E-06 -7.29978166615239749E-06 -7.48457441380123189E-06
 -7.67404510420182323E-06 -7.86831215450520640E-06 -8.06749697932316213E-06
 -8.27172406659480071E-06 -8.48112105537280189E-06 -8.69581881557823127E-06
 -8.91595152977354319E-06 -9.14165677700454125E-06 -9.37307561876420197E-06
 -9.61035268713171143E-06 -9.85363627514140237E-06 -1.01030784294387244E-05
 -1.03588350452806082E-05 -1.06210659639393893E-05 -1.08899350725715447E-05
 -1.11656104066132427E-05 -1.14482642547666939E-05 -1.17380732666426360E-05
 -1.20352185631266789E-05 -1.23398858495377838E-05 -1.26522655316495434E-05
 -1.29725528346470424E-05 -1.33009479250933457E-05 -1.36376560359815000E-05
 -1.39828875949500966E-05 -1.43368583557427671E-05 -1.46997895329933638E-05
 -1.50719079404205739E-05 -1.54534461325186427E-05 -1.58446425498325342E-05
 -1.62457416679079234E-05 -1.66569941500089964E-05 -1.70786570036990525E-05
 -1.75109937413821954E-05 -1.79542745449056842E-05 -1.84087764343256305E-05
 -1.88747834409412334E-05 -1.93525867847055458E-05 -1.98424850561236382E-05
 -2.03447844027509883E-05 -2.08597987204085801E-05 -2.13878498492337382E-05
 -2.19292677746893574E-05 -2.24843908336564543E-05 -2.30535659257383169E-05
 -2.36371487299079036E-05 -2.42355039266337970E-05 -2.48490054256228912E-05
 -2.54780365993217981E-05 -2.61229905223222331E-05 -2.67842702168192637E-05
 -2.74622889042757592E-05 -2.81574702634494564E-05 -2.88702486949436938E-05
 -2.96010695924460264E-05 -3.03503896208233592E-05 -3.11186770012474300E-05
 -3.19064118035275598E-05 -3.27140862458328620E-05 -3.35422050019904724E-05
 -3.43912855165503267E-05 -3.52618583278135146E-05 -3.61544673990239101E-05
 -3.70696704579300261E-05 -3.80080393449284037E-05 -3.89701603700038041E-05
 -3.99566346786894410E-05 -4.09680786272738183E-05 -4.20051241674875798E-05
 -4.30684192409096832E-05 -4.41586281833376092E-05 -4.52764321393735116E-05
 -4.64225294874829152E-05 -4.75976362757903277E-05 -4.88024866688828034E-05
 -5.00378334058975116E-05 -5.13044482701793334E-05 -5.26031225707991772E-05
 -5.39346676362312548E-05 -5.52999153204972535E-05 -5.66997185220890226E-05
 -5.81349517159934716E-05 -5.96065114991494916E-05 -6.11153171496726130E-05
 -6.26623112001980614E-05 -6.42484600256930746E-05 -6.58747544461064721E-05
 -6.75422103442266538E-05 -6.92518692991307444E-05 -7.10047992356172903E-05
 -7.28020950900244761E-05 -7.46448794928463203E-05 -7.65343034685683586E-05
 -7.84715471531551961E-05 -8.04578205296354942E-05 -8.24943641822367896E-05
 -8.45824500695378019E-05 -8.67233823171153064E-05 -8.89184980301743565E-05
 -9.11691681266647922E-05 -9.34767981913971170E-05 -9.58428293516853583E-05
 -9.82687391750572918E-05 -1.00756042589584199E-04 -1.03306292827398807E-04
 -1.05921082391982157E-04 -1.08602044049814430E-04 -1.11350851847002980E-04
 -1.14169222151508896E-04 -1.17058914721617356E-04 -1.20021733801306118E-04
 -1.23059529243187214E-04 -1.26174197659709945E-04 -1.29367683603334174E-04
 -1.32641980776397291E-04 -1.35999133271417241E-04 -1.39441236842591568E-04
 -1.42970440209274599E-04 -1.46588946392227755E-04 -1.50299014083464598E-04
 -1.54102959050524959E-04 -1.58003155576043406E-04 -1.62002037933485466E-04
 -1.66102101899957280E-04 -1.70305906307012365E-04 -1.74616074630399188E-04
 -1.79035296619723273E-04 -1.83566329969014837E-04 -1.88212002029217011E-04
 -1.92975211563644575E-04 -1.97858930547473009E-04 -2.02866206012355428E-04
 -2.08000161937290929E-04 -2.13264001186885073E-04 -2.18661007498184351E-04
 -2.24194547517286705E-04 -2.29868072886959450E-04 -2.35685122386533353E-04
 -2.41649324125358446E-04 -2.47764397791155520E-04 -2.54034156954613627E-04
 -2.60462511431626311E-04 -2.67053469704589194E-04 -2.73811141404214724E-04
 -2.80739739853359794E-04 -2.87843584674390041E-04 -2.95127104461647674E-04
 -3.02594839520624781E-04 -3.10251444675479810E-04 -3.18101692146582503E-04
 -3.26150474499794314E-04 -3.34402807669259409E-04 -3.42863834055493779E-04
 -3.51538825700625584E-04 -3.60433187542668905E-04 -3.69552460750766792E-04
 -3.78902326143374811E-04 -3.88488607691417028E-04 -3.98317276108477907E-04
 -4.08394452530152477E-04 -4.18726412284722925E-04 -4.29319588757381282E-04
 -4.40180577350267343E-04 -4.51316139540643255E-04 -4.62733207039586487E-04
 -4.74438886053623525E-04 -4.86440461651801786E-04 -4.98745402240727363E-04
 -5.11361364150194264E-04 -5.24296196332036399E-04 -5.37557945174948104E-04
 -5.51154859438042423E-04 -5.65095395305990032E-04 -5.79388221568660137E-04
 -5.94042224928225814E-04 -6.09066515436771836E-04 -6.24470432067522185E-04
 -6.40263548422856680E-04 -6.56455678582360891E-04 -6.73056883094232073E-04
 -6.90077475113413442E-04 -7.07528026689953436E-04 -7.25419375211080564E-04
 -7.43762630000648680E-04 -7.62569179079616746E-04 -7.81850696091341744E-04
 -8.01619147395532246E-04 -8.21886799334790061E-04 -8.42666225677753231E-04
 -8.63970315242932165E-04 -8.85812279707418938E-04 -9.08205661604732950E-04
 -9.31164342516158832E-04 -9.54702551460007631E-04 -9.78834873483336266E-04
 -1.00357625846074017E-03 -1.02894203010492477E-03 -1.05494789519385707E-03
 -1.08160995301940567E-03 -1.10894470506242831E-03 -1.13696906489941401E-03
 -1.16570036834584578E-03 -1.19515638384155875E-03 -1.22535532308346300E-03
 -1.25631585191110723E-03 -1.28805710145062893E-03 -1.32059867952278296E-03
 -1.35396068232078535E-03 -1.38816370636384479E-03 -1.42322886073234988E-03
 -1.45917777959074404E-03 -1.49603263500428180E-03 -1.53381615005589883E-03
 -1.57255161226954555E-03 -1.61226288734646773E-03 -1.65297443322093263E-03
 -1.69471131444210430E-03 -1.73749921688874415E-03 -1.78136446282362460E-03
 -1.82633402629454595E-03 -1.87243554888897267E-03 -1.91969735584941064E-03
 -1.96814847255668895E-03 -2.01781864138843650E-03 -2.06873833896007147E-03
 -2.12093879375578566E-03 -2.17445200415696156E-03 -2.22931075687562682E-03
 -2.28554864580058931E-03 -2.34320009126390673E-03 -2.40230035973547145E-03
 -2.46288558395351201E-03 -2.52499278349881465E-03 -2.58865988582058625E-03
 -2.65392574772185200E-03 -2.72083017731226777E-03 -2.78941395643637555E-03
 -2.85971886358515025E-03 -2.93178769729885227E-03 -3.00566430006904027E-03
 -3.08139358274768385E-03 -3.15902154947119351E-03 -3.23859532310716248E-03
 -3.32016317123158631E-03 -3.40377453264413847E-03 -3.48948004442907900E-03
 -3.57733156956926025E-03 -3.66738222512044557E-03 -3.75968641095310091E-03
 -3.85429983906868286E-03 -3.95127956349707304E-03 -4.05068401078179270E-03
 -4.15257301105924435E-03 -4.25700782973798507E-03 -4.36405119978381262E-03
 -4.47376735461591998E-03 -4.58622206161929565E-03 -4.70148265627781496E-03
 -4.81961807693235232E-03 -4.94069890016745825E-03 -5.06479737682994941E-03
 -5.19198746868188531E-03 -5.32234488569005484E-03 -5.45594712395326958E-03
 -5.59287350426815148E-03 -5.73320521133331620E-03 -5.87702533359091370E-03
 -6.02441890370394167E-03 -6.17547293966634343E-03 -6.33027648654221117E-03
 -6.48892065882932488E-03 -6.65149868344080009E-03 -6.81810594329785788E-03
 -6.98884002152476425E-03 -7.16380074623629379E-03 -7.34309023590590856E-03
 -7.52681294530162422E-03 -7.71507571197467719E-03 -7.90798780328437825E-03
 -8.10566096394019567E-03 -8.30820946404073161E-03 -8.51575014758637269E-03
 -8.72840248144038724E-03 -8.94628860471079375E-03 -9.16953337852246045E-03
 -9.39826443614620241E-03 -9.63261223344886140E-03 -9.87271009962469547E-03
 -1.01186942881656885E-02 -1.03707040280243881E-02 -1.06288815749191867E-02
 -1.08933722627283149E-02 -1.11643245549142203E-02 -1.14418900959157958E-02
 -1.17262237624410955E-02 -1.20174837145883371E-02 -1.23158314467176969E-02
 -1.26214318379907660E-02 -1.29344532024888541E-02 -1.32550673388149211E-02
 -1.35834495790777398E-02 -1.39197788371496003E-02 -1.42642376560818528E-02
 -1.46170122545551812E-02 -1.49782925722324566E-02 -1.53482723138750263E-02
 -1.57271489920728959E-02 -1.61151239684306467E-02 -1.65124024930407634E-02
 -1.69191937420655608E-02 -1.73357108532378526E-02 -1.77621709590787200E-02
 -1.81987952176192805E-02 -1.86458088403998710E-02 -1.91034411175062049E-02
 -1.95719254393889805E-02 -2.00514993151972090E-02 -2.05424043873410692E-02
 -2.10448864419826021E-02 -2.15591954151360295E-02 -2.20855853940407180E-02
 -2.26243146134512477E-02 -2.31756454464683223E-02 -2.37398443895141427E-02
 -2.43171820410331349E-02 -2.49079330734757048E-02 -2.55123761980992798E-02
 -2.61307941220944411E-02 -2.67634734975178840E-02 -2.74107048614860918E-02
 -2.80727825670537903E-02 -2.87500047041714252E-02 -2.94426730100826907E-02
 -3.01510927684911917E-02 -3.08755726967881276E-02 -3.16164248205981976E-02
 -3.23739643348605957E-02 -3.31485094506235659E-02 -3.39403812266871191E-02
 -3.47499033851862149E-02 -3.55774021101600071E-02 -3.64232058281046614E-02
 -3.72876449694577103E-02 -3.81710517099084212E-02 -3.90737596903793713E-02
 -3.99961037144601905E-02 -4.09384194220191663E-02 -4.19010429376570417E-02
 -4.28843104926010937E-02 -4.38885580185739976E-02 -4.49141207120981531E-02
 -4.59613325676274803E-02 -4.70305258778203686E-02 -4.81220306991921240E-02
 -4.92361742813008443E-02 -5.03732804575384302E-02 -5.15336689955099292E-02
 -5.27176549048935794E-02 -5.39255477005791822E-02 -5.51576506187859764E-02
 -5.64142597837584137E-02 -5.76956633225350207E-02 -5.90021404251759654E-02
 -6.03339603477247924E-02 -6.16913813550622192E-02 -6.30746496006919094E-02
 -6.44839979403761809E-02 -6.59196446764099692E-02 -6.73817922291949090E-02
 -6.88706257326384130E-02 -7.03863115497667530E-02 -7.19289957047979794E-02
 -7.34988022277737740E-02 -7.50958314077199707E-02 -7.67201579501248787E-02
 -7.83718290343885376E-02 -8.00508622667320119E-02 -8.17572435238998890E-02
 -8.34909246828232227E-02 -8.52518212312475265E-02 -8.70398097541607990E-02
 -8.88547252906902035E-02 -9.06963585559652369E-02 -9.25644530222764217E-02
 -9.44587018536847817E-02 -9.63787446880716298E-02 -9.83241642604459065E-02
 -1.00294482861159731E-01 -1.02289158622519250E-01 -1.04307581627116078E-01
 -1.06349069831046028E-01 -1.08412864795035660E-01 -1.10498127216345512E-01
 -1.12603932254187467E-01 -1.14729264641267176E-01 -1.16873013573939394E-01
 -1.19033967373370755E-01 -1.21210807910003424E-01 -1.23402104783552291E-01
 -1.25606309250697407E-01 -1.27821747892616994E-01 -1.30046616014509758E-01
 -1.32278970769225762E-01 -1.34516723997199883E-01 -1.36757634774958420E-01
 -1.38999301664578828E-01 -1.41239154656633975E-01 -1.43474446799350230E-01
 -1.45702245506945216E-01 -1.47919423540414735E-01 -1.50122649654379575E-01
 -1.52308378904022546E-01 -1.54472842606622307E-01 -1.56612037952746558E-01
 -1.58721717262793216E-01 -1.60797376885296939E-01 -1.62834245734215260E-01
 -1.64827273463330981E-01 -1.66771118276918456E-01 -1.68660134376961174E-01
 -1.70488359048460464E-01 -1.72249499385779381E-01 -1.73936918664487961E-01
 -1.75543622364877722E-01 -1.77062243855163309E-01 -1.78485029744416074E-01
 -1.79803824917503990E-01 -1.81010057266723923E-01 -1.82094722137355503E-01
 -1.83048366507335691E-01 -1.83861072924276947E-01 -1.84522443226385224E-01
 -1.85021582077429303E-01 -1.85347080349796717E-01 -1.85486998393828734E-01
 -1.85428849236102533E-01 -1.85159581754114094E-01 -1.84665563879957723E-01
 -1.83932565891056526E-01 -1.82945743851856413E-01 -1.81689623276600848E-01
 -1.80148083089927052E-01 -1.78304339969021536E-01 -1.76140933158516977E-01
 -1.73639709857155766E-01 -1.70781811283536422E-01 -1.67547659536999211E-01
 -1.63916945378871720E-01 -1.59868617068944674E-01 -1.55380870402125532E-01
 -1.50431140100744765E-01 -1.44996092728999965E-01 -1.39051621307471895E-01
 -1.32572841817860110E-01 -1.25534091798780723E-01 -1.17908931247803009E-01
 -1.09670146057594869E-01 -1.00789754226817282E-01 -9.12390151001916949E-02
 -8.09884419059383326E-02 -7.00078178727006756E-02 -5.82662162220892108E-02
 -4.57320243469902105E-02 -3.23729724996867779E-02 -1.81561673275614059E-02
 -3.04813060751735632E-03  1.29851564567808279E-02  2.99782029984897655E-02
  4.79659519240502458E-02  6.69837166240579013E-02  8.70671105506770349E-02
  1.08251969245753352E-01  1.30574264397439077E-01  1.54070009498762678E-01
  1.78775156679357450E-01  2.04725484281947701E-01  2.31956474758382852E-01
  2.60503182466508498E-01  2.90400090958939427E-01  3.21680959367323993E-01
  3.54378657512397610E-01  3.88524989384413322E-01  4.24150504669618011E-01
  4.61284298036323537E-01  4.99953795934574174E-01  5.40184530712309652E-01
  5.81999901907356398E-01  6.25420924639394582E-01  6.70465965099768191E-01
  7.17150463220100898E-01  7.65486642694002350E-01  8.15483208630102041E-01
  8.67145033229835382E-01  9.20472830010583221E-01  9.75462817234063917E-01
  1.03210637135224292E+00  1.09038967144844690E+00  1.15029333583045812E+00
  1.21179205212530294E+00  1.27485420243222003E+00  1.33944148531123930E+00
  1.40550853661939956E+00  1.47300255145482595E+00  1.54186290973017304E+00
  1.61202080816944493E+00  1.68339890180824936E+00  1.75591095837899958E+00
  1.82946152925034689E+00  1.90394564091067031E+00  1.97924851129867352E+00
  2.05524529559930214E+00  2.13180086643730071E+00  2.20876963371012680E+00
  2.28599540960191616E+00  2.36331132460627424E+00  2.44053980065285270E+00
  2.51749258767484507E+00  2.59397087016538697E+00  2.66976545044356062E+00
  2.74465701547705709E+00  2.81841649418078566E+00  2.89080551211923753E+00
  2.96157695047604630E+00  3.03047561600622251E+00  3.09723902844434518E+00
  3.16159833149409142E+00  3.22327933305875058E+00  3.28200367977672958E+00
  3.33749017018783167E+00  3.38945620996323660E+00  3.43761941159433615E+00
  3.48169933962658895E+00  3.52141940111100293E+00  3.55650887937988358E+00
  3.58670510736215631E+00  3.61175577521900060E+00  3.63142137497447193E+00
  3.64547794457195051E+00  3.65372280380842263E+00  3.65605589102282069E+00
  3.65475244701000612E+00  3.65102743707921951E+00  3.64485957062526733E+00
  3.63625077693994925E+00  3.62521104678092732E+00  3.61175715564644539E+00
  3.59591230363360559E+00  3.57770573062156849E+00  3.55717223639119862E+00
  3.53435159824832201E+00  3.50928788413698722E+00  3.48202866073024175E+00
  3.45262409735037945E+00  3.42112596806899827E+00  3.38758655599897862E+00
  3.35205746562638929E+00  3.31458835107378524E+00  3.27522557051690244E+00
  3.23401077943431758E+00  3.19097947825936856E+00  3.14615953321832897E+00
  3.09956969276877237E+00  3.05121812618476707E+00  3.00110101571643373E+00
  2.94921012054436771E+00  2.89562283651849262E+00  2.84047422721897158E+00
  2.78390084410166816E+00  2.72603939280955876E+00  2.66702626136755461E+00
  2.60699706522003005E+00  2.54608621068933028E+00  2.48442647831565067E+00
  2.42214862735342606E+00  2.35938102251103121E+00  2.29624928379271465E+00
  2.23287596030852642E+00  2.16938022851396806E+00  2.10587761496936476E+00
  2.04247974435418422E+00  1.97929411245607367E+00  1.91642388412786602E+00
  1.85396771605183397E+00  1.79201960395479176E+00  1.73066875382846375E+00
  1.66999947664427739E+00  1.61009110595721627E+00  1.55101793772412799E+00
  1.49284919160422547E+00  1.43564899296250847E+00  1.37947637476110274E+00
  1.32438529848959541E+00  1.27042469327215568E+00  1.21763851226616193E+00
  1.16606580545803529E+00  1.11574080795202923E+00  1.06669304283849109E+00
  1.01894743771922447E+00  9.72524453956224111E-01  9.27440227696850195E-01
  8.83706721712284593E-01  8.41331887066728124E-01  8.00319833613477583E-01
  7.60671008290483508E-01  7.22382380164514504E-01  6.85447631150225889E-01
  6.49857351311981413E-01  6.15599237638969954E-01  5.82658295170103258E-01
  5.51017039351352267E-01  5.20655698513293075E-01  4.91552415374145735E-01
  4.63683446502329677E-01  4.37023358712636423E-01  4.11545221421246665E-01
  3.87220794046440275E-01  3.64020707613196493E-01  3.41914639799480169E-01
  3.20871482748812054E-01  3.00859503065637190E-01  2.81846493505699736E-01
  2.63799915971169308E-01  2.46687035517994313E-01  2.30475045179373533E-01
  2.15131181502591834E-01  2.00622830785849499E-01  1.86917626085673250E-01
  1.73983535143179879E-01  1.61788939448189562E-01  1.50302704723255826E-01
  1.39494243164802939E-01  1.29333567829678336E-01  1.19791339584341364E-01
  1.10838907056773836E-01  1.02448340084638212E-01  9.45924571405729747E-02
  8.72448472262049995E-02  8.03798867258001259E-02  7.39727517017801373E-02
  6.79994260995032129E-02  6.24367063082326840E-02  5.72622025001071969E-02
  5.24543371398933644E-02  4.79923410263307718E-02  4.38562471919854840E-02
  4.00268829535309692E-02  3.64858603693867245E-02  3.32155653273851562E-02
  3.01991454525195671E-02  2.74204969944851600E-02  2.48642508272058117E-02
  2.25157576683047665E-02  2.03610726057345641E-02  1.83869390016896603E-02
  1.65807718304197167E-02  1.49306404965158027E-02  1.34252511745918176E-02
  1.20539287059758127E-02  1.08065980794702088E-02  9.67376553974313123E-03
  8.64649935794389000E-03  7.71641030342063057E-03  6.87563186011369652E-03
  6.11680023531061597E-03  5.43303421253613951E-03  4.81791490410566747E-03
  4.26546546208176128E-03  3.77013080885874258E-03  3.32675745023672123E-03
  2.93057343457005280E-03  2.57716852135360733E-03  2.26247462146226663E-03
  1.98274656922391461E-03  1.73454328365600327E-03  1.51470937262396591E-03
  1.32035722948172147E-03  1.14884966705119289E-03  9.97783128695182899E-04
  8.64971510857220319E-04  7.48430625891494464E-04  6.46363328388803731E-04
  5.57145322747684365E-04  4.79311664311097457E-04  4.11543959604866597E-04
  3.52658269036253504E-04  3.01593709016903468E-04  2.57401746071545131E-04
  2.19236171778972190E-04  1.86343743835195696E-04  1.58055475390978662E-04
  1.33778552102436772E-04  1.12988854040045006E-04  9.52240577187122374E-05
  8.00772920244635834E-05  6.71913207014993203E-05  5.62532233040299013E-05
  4.69895460837772375E-05  3.91618941485038412E-05  3.25629363598334447E-05
  2.70127948100623344E-05  2.23557912976351489E-05  1.84575239800008403E-05
  1.52022482920700938E-05  1.24905372511402202E-05  1.02371973992546998E-05
  8.36941783740955322E-06  6.82513106444122975E-06  5.55156562689601343E-06
  4.50397181459757584E-06  3.64450305630006828E-06  2.94123688572977243E-06
  2.36732058545320223E-06  1.90022784724062167E-06  1.52111395565090675E-06
  1.21425811695897371E-06  9.66582613526248990E-07  7.67239460853727082E-07
  6.07256178684665578E-07  4.79233157610581478E-07  3.77085908607546375E-07
  2.95826225568033040E-07  2.31376971669598863E-07  1.80415821388515621E-07
  1.40243853638502268E-07  1.08675400756086405E-07  8.39460159890777297E-08
  6.46358320647084698E-08  4.96059487068113587E-08  3.79458110523562418E-08
                             </PP_RHOATOM> 
<PP_PAW paw_data_format="2"> 
   <PP_OCCUPATIONS type="real" columns="3" size=" 4">
  2.00000000000000000E+00  0.00000000000000000E+00  4.00000000000000000E+00
  0.00000000000000000E+00
                             </PP_OCCUPATIONS> 
 <PP_AE_NLCC type="real" size="   999" columns="3">
  2.92876592469414891E+03  2.92819565329139277E+03  2.92762460330869726E+03
  2.92705276565894292E+03  2.92648013410557905E+03  2.92590669656267755E+03
  2.92533243798812828E+03  2.92475735155638404E+03  2.92418142834074843E+03
  2.92360465357230760E+03  2.92302701564466497E+03  2.92244850736430726E+03
  2.92186911604510351E+03  2.92128882683397342E+03  2.92070763196529197E+03
  2.92012552036183888E+03  2.91954247637308754E+03  2.91895849033916966E+03
  2.91837355203794732E+03  2.91778764591965319E+03  2.91720076067126911E+03
  2.91661288618968729E+03  2.91602400696775430E+03  2.91543411080318083E+03
  2.91484318716021653E+03  2.91425122027133693E+03  2.91365819773470457E+03
  2.91306410815761956E+03  2.91246893530621264E+03  2.91187266706729861E+03
  2.91127529071954541E+03  2.91067678974690989E+03  2.91007715240385596E+03
  2.90947636410029418E+03  2.90887440890949210E+03  2.90827127467913124E+03
  2.90766694488302119E+03  2.90706140510577461E+03  2.90645464137999898E+03
  2.90584663641457746E+03  2.90523737685694186E+03  2.90462684595698556E+03
  2.90401502794830412E+03  2.90340190791990790E+03  2.90278746797857229E+03
  2.90217169360737125E+03  2.90155456684505634E+03  2.90093607168481867E+03
  2.90031619118919798E+03  2.89969490749870420E+03  2.89907220440803439E+03
  2.89844806287982010E+03  2.89782246659213934E+03  2.89719539616283237E+03
  2.89656683444084729E+03  2.89593676213190838E+03  2.89530516102648835E+03
  2.89467201192695484E+03  2.89403729565342655E+03  2.89340099293121466E+03
  2.89276308378001613E+03  2.89212354865205134E+03  2.89148236692025375E+03
  2.89083951860105708E+03  2.89019498253485744E+03  2.88954873817600583E+03
  2.88890076391697630E+03  2.88825103854504368E+03  2.88759954007483839E+03
  2.88694624653216533E+03  2.88629113561178610E+03  2.88563418450230984E+03
  2.88497537060306877E+03  2.88431467024407902E+03  2.88365206046812000E+03
  2.88298751684787339E+03  2.88232101585549799E+03  2.88165253257729910E+03
  2.88098204258351916E+03  2.88030952073178560E+03  2.87963494149095050E+03
  2.87895827949831119E+03  2.87827950828041730E+03  2.87759860187081949E+03
  2.87691553335937533E+03  2.87623027567157942E+03  2.87554280166637454E+03
  2.87485308326674385E+03  2.87416109265226396E+03  2.87346680134288681E+03
  2.87277018034094135E+03  2.87207120075377225E+03  2.87136983288470719E+03
  2.87066604676863881E+03  2.86995981232012264E+03  2.86925109870120332E+03
  2.86853987484689242E+03  2.86782610947001649E+03  2.86710977059760899E+03
  2.86639082595374248E+03  2.86566924304103304E+03  2.86494498873745897E+03
  2.86421802948275354E+03  2.86348833152227326E+03  2.86275586055605891E+03
  2.86202058174435206E+03  2.86128245996133182E+03  2.86054145967943077E+03
  2.85979754482013550E+03  2.85905067882275489E+03  2.85830082480792225E+03
  2.85754794541952515E+03  2.85679200277318205E+03  2.85603295849261622E+03
  2.85527077381718391E+03  2.85450540951358289E+03  2.85373682582356696E+03
  2.85296498247504815E+03  2.85218983871885939E+03  2.85141135335929994E+03
  2.85062948467851493E+03  2.84984419042940499E+03  2.84905542783842748E+03
  2.84826315361147135E+03  2.84746732395905383E+03  2.84666789456145807E+03
  2.84586482055005172E+03  2.84505805650576667E+03  2.84424755645639425E+03
  2.84343327387287945E+03  2.84261516166969295E+03  2.84179317220419625E+03
  2.84096725725681381E+03  2.84013736802411995E+03  2.83930345511384530E+03
  2.83846546853942073E+03  2.83762335771411927E+03  2.83677707144488159E+03
  2.83592655792591131E+03  2.83507176473203526E+03  2.83421263881209097E+03
  2.83334912648264162E+03  2.83248117341976513E+03  2.83160872465159491E+03
  2.83073172455141730E+03  2.82985011683063658E+03  2.82896384453161727E+03
  2.82807285002043272E+03  2.82717707497949596E+03  2.82627646040011678E+03
  2.82537094657497346E+03  2.82446047309049527E+03  2.82354497881916905E+03
  2.82262440191176438E+03  2.82169867978947696E+03  2.82076774913599593E+03
  2.81983154588947446E+03  2.81889000523442201E+03  2.81794306159350208E+03
  2.81699064861923898E+03  2.81603269918568321E+03  2.81506914538074125E+03
  2.81409991849776952E+03  2.81312494902662684E+03  2.81214416664494138E+03
  2.81115750020928863E+03  2.81016487774627467E+03  2.80916622644346262E+03
  2.80816147264018946E+03  2.80715054181825735E+03  2.80613335859253357E+03
  2.80510984670446805E+03  2.80407992901508578E+03  2.80304352749152258E+03
  2.80200056319675514E+03  2.80095095627955425E+03  2.79989462596429712E+03
  2.79883149054148544E+03  2.79776146736634337E+03  2.79668447284609465E+03
  2.79560042242392910E+03  2.79450923056804186E+03  2.79341081076079763E+03
  2.79230507549703179E+03  2.79119193627867435E+03  2.79007130359162238E+03
  2.78894308689309219E+03  2.78780719460242244E+03  2.78666353410783131E+03
  2.78551201174570087E+03  2.78435253277913171E+03  2.78318500138777699E+03
  2.78200932067781514E+03  2.78082539266199956E+03  2.77963311823318736E+03
  2.77843239715852133E+03  2.77722312809294181E+03  2.77600520854455635E+03
  2.77477853485373953E+03  2.77354300220641335E+03  2.77229850462189324E+03
  2.77104493491473386E+03  2.76978218470118509E+03  2.76851014440419840E+03
  2.76722870320649417E+03  2.76593774905385135E+03  2.76463716866550521E+03
  2.76332684748291013E+03  2.76200666967828465E+03  2.76067651815843010E+03
  2.75933627451248913E+03  2.75798581903501554E+03  2.75662503070707180E+03
  2.75525378715667375E+03  2.75387196469272294E+03  2.75247943825236916E+03
  2.75107608140215052E+03  2.74966176634354861E+03  2.74823636385883901E+03
  2.74679974334835879E+03  2.74535177277579123E+03  2.74389231867748504E+03
  2.74242124615180364E+03  2.74093841882183551E+03  2.73944369886371078E+03
  2.73793694694348233E+03  2.73641802225579613E+03  2.73488678246400923E+03
  2.73334308372536361E+03  2.73178678065021404E+03  2.73021772630626128E+03
  2.72863577219773379E+03  2.72704076825199581E+03  2.72543256281311051E+03
  2.72381100261741221E+03  2.72217593279471657E+03  2.72052719683938903E+03
  2.71886463661306334E+03  2.71718809231701334E+03  2.71549740249088109E+03
  2.71379240399169976E+03  2.71207293198346224E+03  2.71033881992776378E+03
  2.70858989955973402E+03  2.70682600089391781E+03  2.70504695218457255E+03
  2.70325257994625008E+03  2.70144270890288044E+03  2.69961716201380841E+03
  2.69777576042597912E+03  2.69591832348736216E+03  2.69404466872096282E+03
  2.69215461181029150E+03  2.69024796660362654E+03  2.68832454507370903E+03
  2.68638415733733518E+03  2.68442661161627575E+03  2.68245171423830197E+03
  2.68045926962939302E+03  2.67844908028218197E+03  2.67642094677121349E+03
  2.67437466771878144E+03  2.67231003979055595E+03  2.67022685769493864E+03
  2.66812491415008617E+03  2.66600399989290963E+03  2.66386390366130126E+03
  2.66170441217305279E+03  2.65952531013546241E+03  2.65732638021989351E+03
  2.65510740305017134E+03  2.65286815720872255E+03  2.65060841921051042E+03
  2.64832796349583441E+03  2.64602656243407409E+03  2.64370398629979854E+03
  2.64136000326612157E+03  2.63899437940844518E+03  2.63660687868350442E+03
  2.63419726292129417E+03  2.63176529182953891E+03  2.62931072297731862E+03
  2.62683331178463459E+03  2.62433281152585232E+03  2.62180897332102722E+03
  2.61926154612307982E+03  2.61669027671738240E+03  2.61409490972250660E+03
  2.61147518757697389E+03  2.60883085053496461E+03  2.60616163667014280E+03
  2.60346728186998553E+03  2.60074751982815405E+03  2.59800208204427736E+03
  2.59523069782859693E+03  2.59243309429545388E+03  2.58960899636064687E+03
  2.58675812674367853E+03  2.58388020597313516E+03  2.58097495238276315E+03
  2.57804208211215337E+03  2.57508130911073204E+03  2.57209234514527316E+03
  2.56907489979984575E+03  2.56602868047898801E+03  2.56295339241361444E+03
  2.55984873867066381E+03  2.55671442015876119E+03  2.55355013563332022E+03
  2.55035558170521881E+03  2.54713045285141106E+03  2.54387444142763388E+03
  2.54058723767651782E+03  2.53726852973900441E+03  2.53391800366747702E+03
  2.53053534344110585E+03  2.52712023098219561E+03  2.52367234616967926E+03
  2.52019136685588410E+03  2.51667696888477030E+03  2.51312882611183704E+03
  2.50954661042614953E+03  2.50592999176997000E+03  2.50227863816098625E+03
  2.49859221571635726E+03  2.49487038867801357E+03  2.49111281944036818E+03
  2.48731916857818351E+03  2.48348909487441506E+03  2.47962225535075913E+03
  2.47571830529966155E+03  2.47177689831783709E+03  2.46779768634203128E+03
  2.46378031968560572E+03  2.45972444707549630E+03  2.45562971569177080E+03
  2.45149577120888898E+03  2.44732225783862941E+03  2.44310881837484249E+03
  2.43885509424057864E+03  2.43456072553562853E+03  2.43022535108604461E+03
  2.42584860849597362E+03  2.42143013420137504E+03  2.41696956352568532E+03
  2.41246653073747666E+03  2.40792066911056554E+03  2.40333161098569872E+03
  2.39869898783383042E+03  2.39402243032209890E+03  2.38930156838196717E+03
  2.38453603127963152E+03  2.37972544768866555E+03  2.37486944576501355E+03
  2.36996765322457122E+03  2.36501969742306574E+03  2.36002520543785931E+03
  2.35498380415260590E+03  2.34989512034448944E+03  2.34475878077405514E+03
  2.33957441227766321E+03  2.33434164186262660E+03  2.32906009680506804E+03
  2.32372940475058704E+03  2.31834919381792633E+03  2.31291909270505585E+03
  2.30743873079826835E+03  2.30190773828434158E+03  2.29632574626569112E+03
  2.29069238687855113E+03  2.28500729341427314E+03  2.27927010044371536E+03
  2.27348044394485441E+03  2.26763796143357058E+03  2.26174229209775967E+03
  2.25579307693481906E+03  2.24978995889230737E+03  2.24373258301198848E+03
  2.23762059657739655E+03  2.23145364926487309E+03  2.22523139329812739E+03
  2.21895348360635671E+03  2.21261957798594858E+03  2.20622933726583915E+03
  2.19978242547651098E+03  2.19327851002273428E+03  2.18671726186002707E+03
  2.18009835567488062E+03  2.17342147006883124E+03  2.16668628774639592E+03
  2.15989249570676520E+03  2.15303978543941912E+03  2.14612785312368942E+03
  2.13915639983227129E+03  2.13212513173868365E+03  2.12503376032873439E+03
  2.11788200261597831E+03  2.11066958136118456E+03  2.10339622529586222E+03
  2.09606166934979592E+03  2.08866565488265906E+03  2.08120792991966391E+03
  2.07368824939128262E+03  2.06610637537701632E+03  2.05846207735322469E+03
  2.05075513244500007E+03  2.04298532568207202E+03  2.03515245025874992E+03
  2.02725630779787730E+03  2.01929670861873069E+03  2.01127347200890313E+03
  2.00318642650009974E+03  1.99503541014783923E+03  1.98682027081501678E+03
  1.97854086645925804E+03  1.97019706542406425E+03  1.96178874673364157E+03
  1.95331580039140317E+03  1.94477812768204626E+03  1.93617564147714984E+03
  1.92750826654422394E+03  1.91877593985910880E+03  1.90997861092166522E+03
  1.90111624207463046E+03  1.89218880882556869E+03  1.88319630017179429E+03
  1.87413871892814814E+03  1.86501608205753087E+03  1.85582842100403354E+03
  1.84657578202856189E+03  1.83725822654678655E+03  1.82787583146927136E+03
  1.81842868954364758E+03  1.80891690969862543E+03  1.79934061738970217E+03
  1.78969995494636169E+03  1.77999508192057920E+03  1.77022617543643923E+03
  1.76039343054063329E+03  1.75049706055363868E+03  1.74053729742133214E+03
  1.73051439206680971E+03  1.72042861474216397E+03  1.71028025537993631E+03
  1.70006962394401603E+03  1.68979705077965082E+03  1.67946288696234592E+03
  1.66906750464528295E+03  1.65861129740498745E+03  1.64809468058491143E+03
  1.63751809163659459E+03  1.62688199045806527E+03  1.61618685972911067E+03
  1.60543320524306841E+03  1.59462155623475428E+03  1.58375246570410968E+03
  1.57282651073522106E+03  1.56184429281024495E+03  1.55080643811784535E+03
  1.53971359785569689E+03  1.52856644852661293E+03  1.51736569222783305E+03
  1.50611205693299848E+03  1.49480629676635294E+03  1.48344919226865545E+03
  1.47204155065431041E+03  1.46058420605921060E+03  1.44907801977875783E+03
  1.43752388049552906E+03  1.42592270449605667E+03  1.41427543587614514E+03
  1.40258304673419070E+03  1.39084653735191159E+03  1.37906693636190334E+03
  1.36724530090146436E+03  1.35538271675204555E+03  1.34348029846375698E+03
  1.33153918946432395E+03  1.31956056215182116E+03  1.30754561797064684E+03
  1.29549558747002629E+03  1.28341173034447365E+03  1.27129533545552590E+03
  1.25914772083415619E+03  1.24697023366319900E+03  1.23476425023912452E+03
  1.22253117591258047E+03  1.21027244500698293E+03  1.19798952071458348E+03
  1.18568389496930899E+03  1.17335708829580449E+03  1.16101064963398312E+03
  1.14864615613850992E+03  1.13626521295257680E+03  1.12386945295534110E+03
  1.11146053648248085E+03  1.09904015101921004E+03  1.08661001086523129E+03
  1.07417185677102339E+03  1.06172745554494009E+03  1.04927859963057358E+03
  1.03682710665386367E+03  1.02437481893948279E+03  1.01192360299598545E+03
  9.99475348969309152E+02  9.87031970064170764E+02  9.74595401932985055E+02
  9.62167602031907450E+02  9.49750548943685999E+02  9.37346241666990181E+02
  9.24956698871963908E+02  9.12583958121742853E+02  9.00230075059742717E+02
  8.87897122562559048E+02  8.75587189858347074E+02  8.63302381610616635E+02
  8.51044816967391512E+02  8.38816628575761456E+02  8.26619961561889795E+02
  8.14456972476573583E+02  8.02329828206546836E+02  7.90240704851724786E+02
  7.78191786568686098E+02  7.66185264380715353E+02  7.54223334954807228E+02
  7.42308199346092465E+02  7.30442061710194935E+02  7.18627127984125082E+02
  7.06865604536341948E+02  6.95159696786718314E+02  6.83511607797188503E+02
  6.71923536833949697E+02  6.60397677902135570E+02  6.48936218253981224E+02
  6.37541336871546378E+02  6.26215202925152994E+02  6.14959974208773133E+02
  6.03777795553657597E+02  5.92670797221601219E+02  5.81641093279290658E+02
  5.70690779955271296E+02  5.59821933981150551E+02  5.49036610918711858E+02
  5.38336843474718762E+02  5.27724639805234801E+02  5.17201981811428482E+02
  5.06770823428728306E+02  4.96433088911442212E+02  4.86190671115011810E+02
  4.76045429778072673E+02  4.65999189806585207E+02  4.56053739562367014E+02
  4.46210829158421063E+02  4.36472168763513082E+02  4.26839426918504046E+02
  4.17314228867011593E+02  4.07898154903004297E+02  3.98592738737998559E+02
  3.89399465890557224E+02  3.80319772100837611E+02  3.71355041772962068E+02
  3.62506606448022126E+02  3.53775743310542566E+02  3.45163673731262122E+02
  3.36671561849091120E+02  3.28300513195119663E+02  3.20051573361552755E+02
  3.11925726718443002E+02  3.03923895181079331E+02  2.96046937030877984E+02
  2.88295645792593859E+02  2.80670749170643035E+02  2.73172908047283556E+02
  2.65802715545364663E+02  2.58560696158292956E+02  2.51447304949809279E+02
  2.44462926826100926E+02  2.37607875882694117E+02  2.30882394828491954E+02
  2.24286654489228624E+02  2.17820753392514916E+02  2.11484717436686822E+02
  2.05278499645145018E+02  1.99201980007891535E+02  1.93254965412332126E+02
  1.87437189664749837E+02  1.81748313603837431E+02  1.76187925307535835E+02
  1.70755540394262965E+02  1.65450602419443300E+02  1.60272483368076763E+02
  1.55220484243896095E+02  1.50293835755474646E+02  1.45491699099447857E+02
  1.40813166840810936E+02  1.36257263890045635E+02  1.31822948576615175E+02
  1.27509113818152557E+02  1.23314588384441151E+02  1.19238138255063447E+02
  1.15278468069366539E+02  1.11434222667158394E+02  1.07703988718321014E+02
  1.04086296439287239E+02  1.00579621394097316E+02  9.71823863775135095E+01
  9.38929633774382211E+01  9.07096756136470788E+01  8.76307996496165771E+01
  8.46545675739990884E+01  8.17791692480687402E+01  7.90027546152452231E+01
  7.63234360686880535E+01  7.37392908727644567E+01  7.12483636329642422E+01
  6.88486688104108850E+01  6.65381932759596992E+01  6.43148988986807950E+01
  6.21767251634734421E+01  6.01215918124043824E+01  5.81474015042306291E+01
  5.62520424864396844E+01  5.44333912741407033E+01  5.26893153298052113E+01
  5.10176757382058739E+01  4.94163298705857414E+01  4.78831340322501617E+01
  4.64159460878212329E+01  4.50126280585013347E+01  4.36710486858442124E+01
  4.23890859567226386E+01  4.11646295844129710E+01  3.99955834409805888E+01
  3.88798679364436239E+01  3.78154223405061742E+01  3.68002070429776111E+01
  3.58322057493207211E+01  3.49094276080919883E+01  3.40299092673379135E+01
  3.31917168572893146E+01  3.23929478969419193E+01  3.16317331223942801E+01
  3.09062382351007869E+01  3.02146655672817701E+01  2.95552556634475430E+01
  2.89262887763128482E+01  2.83260862752310842E+01  2.77530119654005709E+01
  2.72054733160296287E+01  2.66819225955488299E+01  2.61808579118354352E+01
  2.57008241552883021E+01  2.52404138424831928E+01  2.47982678580816618E+01
  2.43730760926942054E+01  2.39635779745381292E+01  2.35685628930090267E+01
  2.31868705127048003E+01  2.28173909770000272E+01  2.24590650009397024E+01
  2.21108838539670884E+01  2.17718892337778733E+01  2.14411730333513155E+01
  2.11178770039098715E+01  2.08011923171665920E+01  2.04903590307173644E+01
  2.01846654608121874E+01  1.98834474670043910E+01  1.95860876533392911E+01
  1.92920144908804474E+01  1.90007013663075703E+01  1.87116655610286138E+01
  1.84244671658848453E+01  1.81387079359694177E+01  1.78540300900870221E+01
  1.75701150593617648E+01  1.72866821894554583E+01  1.70034874008251400E+01
  1.67203218114244478E+01  1.64370103262369334E+01  1.61534101980170917E+01
  1.58694095636035506E+01  1.55849259601540524E+01  1.52999048256318240E+01
  1.50143179878434250E+01  1.47281621462874615E+01  1.44414573510205244E+01
  1.41542454826783590E+01  1.38665887377090318E+01  1.35785681227766020E+01
  1.32902819621818491E+01  1.30018444220212430E+01  1.27133840546657613E+01
  1.24250423669892474E+01  1.21369724156137924E+01  1.18493374322667968E+01
  1.15623094821614476E+01  1.12760681581204434E+01  1.09907993129904487E+01
  1.07066938326773418E+01  1.04239464519267564E+01  1.01427546147751837E+01
  9.86331738139145209E+00  9.58583438282213685E+00  9.31050482494926790E+00
  9.03752654276519607E+00  8.76709510586840501E+00  8.49940297588632632E+00
  8.23463871633784450E+00  7.97298625525886973E+00  7.71462420073117094E+00
  7.45972520927696081E+00  7.20845540691011255E+00  6.96097386247110617E+00
  6.71743211271499874E+00  6.47797373847273672E+00  6.24273399106410487E+00
  6.01183946800735569E+00  5.78540783694542071E+00  5.56354760659194714E+00
  5.34635794339281745E+00  5.13392853249925896E+00  4.92633948155785095E+00
  4.72366126573936729E+00  4.52595471237634150E+00  4.33327102347748294E+00
  4.14565183435100604E+00  3.96312930652761741E+00  3.78572625312989208E+00
  3.61345629480505481E+00  3.44632404431514949E+00  3.28432531786439430E+00
  3.12744737123580574E+00  2.97566915880891747E+00  2.82896161353718778E+00
  2.68728794597576126E+00  2.55060396046930293E+00  2.41885838663314656E+00
  2.29199322428954932E+00  2.16994410005386174E+00  2.05264063380149597E+00
  1.94000681328638280E+00  1.83196137522188973E+00  1.72841819118032980E+00
  1.62928665671297357E+00  1.53447208213181630E+00  1.44387608344688911E+00
  1.35739697199490617E+00  1.27493014134594373E+00  1.19636845013469961E+00
  1.12160259943115004E+00  1.05052150341041428E+00  9.83012652107512541E-01
  9.18962465066740064E-01  8.58256634761747184E-01  8.00780458718655330E-01
  7.46419159333624127E-01  6.95058190437791601E-01  6.46583529724893635E-01
  6.00881956219368241E-01  5.57841312022508196E-01  5.17350747630019425E-01
  4.79300950164219197E-01  4.43584353908380691E-01  4.10095332572824323E-01
  3.78730372769393087E-01  3.49388228237784482E-01  3.21970054474779499E-01
  2.96379523594707983E-01  2.72522919529087526E-01  2.50309214084117326E-01
  2.29650124930072669E-01  2.10460157277401472E-01  1.92656631733853806E-01
  1.76159701519011613E-01  1.60892362650452675E-01  1.46780460691946529E-01
  1.33752697226498962E-01  1.21740638032114268E-01  1.10678723339522667E-01
  1.00504278734839692E-01  9.11575235966097241E-02  8.25815728227034668E-02
  7.47224273140061485E-02  6.75289493566910703E-02  6.09528205497887055E-02
  5.49484818914975567E-02  4.94730575750792767E-02  4.44862655088247502E-02
  3.99503183146765542E-02  3.58298185738163133E-02  3.20916515646782613E-02
  2.87048779478197603E-02  2.56406280335463137E-02  2.28719985774217399E-02
  2.03739525490820306E-02  1.81232220073919079E-02  1.60982140512608667E-02
  1.42789197527194260E-02  1.26468259752887252E-02  1.11848300086836161E-02
  9.87715697093415231E-03  8.70927997043557077E-03  7.66784305178885503E-03
  6.74058695010087278E-03  5.91627769004293355E-03  5.18463806630786207E-03
  4.53628203693428895E-03  3.96265205202616256E-03  3.45595932900409977E-03
  3.00912707274478535E-03  2.61573662565750499E-03  2.26997651954866358E-03
  1.96659438850785512E-03  1.70085169033124765E-03  1.46848117338204613E-03
  1.26564701638998264E-03  1.08890756055279826E-03  9.35180546419465421E-04
  8.01710762371395796E-04  6.86040007012345197E-04  5.85979264360578602E-04
  4.99582988327290818E-04  4.25125391484356969E-04  3.61078632489710265E-04
  3.06092796835569258E-04  2.58977566185060774E-04  2.18685472074786960E-04
  1.84296634166110140E-04  1.55004883855521685E-04  1.30105177184080981E-04
  1.08982204366532413E-04  9.11001067781243388E-05  7.59932159890049905E-05
  6.32577333695888601E-05  5.25442728556896183E-05  4.35511936132013688E-05
  3.60186535363490610E-05  2.97233187118955657E-05  2.44736681494101591E-05
  2.01058371833394931E-05  1.64799469688549507E-05  1.34768713966668916E-05
  1.09953965220826946E-05  8.94973122421406113E-06  7.26733126910314627E-06
  5.88700223590821613E-06  4.75724987078229572E-06  3.83484935463056796E-06
  3.08360770647221812E-06  2.47329609512362194E-06  1.97873120278826337E-06
  1.57898693503374852E-06  1.25671984073892967E-06  9.97593422016696343E-07
  7.89788184086380060E-07  6.23585813832587164E-07  4.91017259873680784E-07
  3.85565735103850175E-07  3.01916783986720403E-07  2.35748560423068255E-07
  1.83556356784985852E-07  1.42506219513696279E-07  1.10313190060882893E-07
  8.51403301395694827E-08  6.55152350670930365E-08  5.02612158373043321E-08
  3.84407464056397291E-08  2.93091339913960223E-08  2.22766830027127287E-08
  1.68778930001384862E-08  1.27464629947184460E-08  9.59507293147421665E-09
  7.19908260658416528E-09  5.38343225862315335E-09  4.01215102265690458E-09
  2.97998236238428199E-09  2.20572195054617155E-09  1.62693609148875028E-09
  1.19578923186048258E-09  8.75759193457094037E-10  6.39060447821612622E-10
  4.64630076377232146E-10  3.36559262581607102E-10  2.42876248376127656E-10
  1.74605510652317744E-10  1.25043201098861934E-10  8.92012594944951579E-11
  6.33825742964304005E-11  4.48575596981112146E-11  3.16189079227093610E-11
  2.21963608473452634E-11  1.55173755331617601E-11  1.08027392770127757E-11
  7.48868979304786639E-12  5.16905248630434223E-12  3.55243110345712167E-12
  2.43067056743647829E-12  1.65572412627382532E-12  1.12275921757553268E-12
  7.57874013694370120E-13  5.09206245628239456E-13  3.40526544405330749E-13
  2.26643156842319112E-13  1.50121226813325730E-13  9.89515353793361280E-14
  6.49017804559525673E-14  4.23561667576779196E-14  2.75026535639076555E-14
  1.77665059950711095E-14  1.14174765923478285E-14  7.29877087286112742E-15
  4.64099691679380979E-15  2.93511324540117668E-15  1.84612113237995618E-15
  1.15474641954904069E-15  7.18245873248091627E-16  4.44210028422695072E-16
  2.73149580238919283E-16  1.66985039285862424E-16  1.01481518086184220E-16
  6.13049951502182765E-17  3.68104441614622254E-17  2.19674140187728912E-17
  1.30282326004968411E-17  7.67814625173004144E-18  4.49631583538722355E-18
  2.61608427465839085E-18  1.51218773631724028E-18  8.68326259557012240E-19
  4.95275888534449097E-19  2.80583318749404031E-19  1.57866469174731703E-19
  8.82051388542166496E-20  4.89368441304028646E-20  2.69573880396875829E-20
  1.47428247339851000E-20  8.00396989935183466E-21  4.31332709555931381E-21
  2.30707346745395843E-21  1.22464987214122633E-21  6.45093780948865568E-22
  3.37172832253694186E-22  1.74847325100567136E-22  8.99496500599190834E-23
  4.59019205275044603E-23  2.32332197024279811E-23  1.16624771389820071E-23
  5.80537377091657021E-24  2.86537882187096401E-24  1.40216868458322525E-24
  6.80202341893358281E-25  3.27075916875431692E-25  1.55877720500277690E-25
  7.36201030378940311E-26  3.44537865325994877E-26  1.59755685081798835E-26
  7.33845373333957908E-27  3.33911288180196665E-27  1.50482063490868729E-27
  6.71604538515597415E-28  2.96800926118244982E-28  1.29863306904687142E-28
  5.62501122526198301E-29  2.41169021157446206E-29  1.02335328413013712E-29
  4.29713764545211555E-30  1.78535703985343355E-30  7.33848800932187766E-31
  2.98377091695093406E-31  1.19989334526328161E-31  4.77175518647132400E-32
  1.87633848308965672E-32  7.29423917871505673E-33  2.80299219665231083E-33
  1.06456730763852119E-33  3.99548055889665081E-34  1.48164715156605475E-34
  5.42794253477599007E-35  1.96414882104008823E-35  7.01932661434628342E-36
  2.47702745605212291E-36  8.63002540283578657E-37  2.96804138421082441E-37
  1.00747516252464401E-37  3.37469319122082010E-38  1.11531604450526235E-38
  3.63624028166147619E-39  1.16929612814667621E-39  3.70799523634188406E-40
  1.15936710270802999E-40  3.57349642742979556E-41  1.08562210911560222E-41
  3.25011125030602176E-42  9.58676552889283898E-43  2.78560279500290726E-43
  7.97181159555771045E-44  2.24647585104780294E-44  6.23255192725081046E-45
                             </PP_AE_NLCC> 
 <PP_AE_VLOC type="real" size="   999" columns="3">
 -5.61365780572408577E+05 -5.54391011483362527E+05 -5.47502884367487510E+05
 -5.40700322940909071E+05 -5.33982264289563638E+05 -5.27347658703119960E+05
 -5.20795469510957657E+05 -5.14324672920185199E+05 -5.07934257855671458E+05
 -5.01623225802061032E+05 -4.95390590647756238E+05 -4.89235378530834743E+05
 -4.83156627686880878E+05 -4.77153388298709120E+05 -4.71224722347950970E+05
 -4.65369703468490799E+05 -4.59587416801717249E+05 -4.53876958853575168E+05
 -4.48237437353393179E+05 -4.42667971114463173E+05 -4.37167689896355150E+05
 -4.31735734268939239E+05 -4.26371255478098057E+05 -4.21073415313107369E+05
 -4.15841385975663085E+05 -4.10674349950537726E+05 -4.05571499877840746E+05
 -4.00532038426867395E+05 -3.95555178171514301E+05 -3.90640141467241279E+05
 -3.85786160329564940E+05 -3.80992476314057829E+05 -3.76258340397840773E+05
 -3.71583012862546369E+05 -3.66965763178735797E+05 -3.62405869891753304E+05
 -3.57902620508996712E+05 -3.53455311388589209E+05 -3.49063247629434103E+05
 -3.44725742962633783E+05 -3.40442119644260849E+05 -3.36211708349457826E+05
 -3.32033848067854473E+05 -3.27907886000283353E+05 -3.23833177456777834E+05
 -3.19809085755839595E+05 -3.15834982124954695E+05 -3.11910245602346724E+05
 -3.08034262939950917E+05 -3.04206428507591423E+05 -3.00426144198352296E+05
 -2.96692819335120614E+05 -2.93005870578292699E+05 -2.89364721834625932E+05
 -2.85768804167222406E+05 -2.82217555706632556E+05 -2.78710421563061187E+05
 -2.75246853739664773E+05 -2.71826311046926421E+05 -2.68448259018092591E+05
 -2.65112169825663324E+05 -2.61817522198916995E+05 -2.58563801342460938E+05
 -2.55350498855793907E+05 -2.52177112653866585E+05 -2.49043146888631047E+05
 -2.45948111871562636E+05 -2.42891523997145356E+05 -2.39872905667307758E+05
 -2.36891785216796416E+05 -2.33947696839478478E+05 -2.31040180515557848E+05
 -2.28168781939696026E+05 -2.25333052450026618E+05 -2.22532548958049883E+05
 -2.19766833879400539E+05 -2.17035475065473613E+05 -2.14338045735900378E+05
 -2.11674124411863333E+05 -2.09043294850238628E+05 -2.06445145978558168E+05
 -2.03879271830778045E+05 -2.01345271483845747E+05 -1.98842748995055212E+05
 -1.96371313340179331E+05 -1.93930578352372744E+05 -1.91520162661831506E+05
 -1.89139689636203810E+05 -1.86788787321740325E+05 -1.84467088385175244E+05
 -1.82174230056330329E+05 -1.79909854071431124E+05 -1.77673606617127429E+05
 -1.75465138275209349E+05 -1.73284103968009498E+05 -1.71130162904484925E+05
 -1.69002978526966879E+05 -1.66902218458573567E+05 -1.64827554451275355E+05
 -1.62778662334604975E+05 -1.60755221965006174E+05 -1.58756917175809795E+05
 -1.56783435727832548E+05 -1.54834469260588870E+05 -1.52909713244108512E+05
 -1.51008866931354132E+05 -1.49131633311228099E+05 -1.47277719062164309E+05
 -1.45446834506295971E+05 -1.43638693564192654E+05 -1.41853013710160245E+05
 -1.40089515928095498E+05 -1.38347924667889194E+05 -1.36627967802370957E+05
 -1.34929376584788464E+05 -1.33251885606815864E+05 -1.31595232757082762E+05
 -1.29959159180218936E+05 -1.28343409236407635E+05 -1.26747730461441097E+05
 -1.25171873527272983E+05 -1.23615592203060020E+05 -1.22078643316688132E+05
 -1.20560786716776187E+05 -1.19061785235151649E+05 -1.17581404649793112E+05
 -1.16119413648232221E+05 -1.14675583791410783E+05 -1.13249689477986729E+05
 -1.11841507909083142E+05 -1.10450819053476007E+05 -1.09077405613213530E+05
 -1.07721052989663018E+05 -1.06381549249979376E+05 -1.05058685093990251E+05
 -1.03752253821492151E+05 -1.02462051299953659E+05 -1.01187875932618888E+05
 -9.99295286270077777E+04 -9.86868127638075239E+04 -9.74595341661500861E+04
 -9.62475010692721553E+04 -9.50505240905512328E+04 -9.38684161999142671E+04
 -9.27009926906139590E+04 -9.15480711503675557E+04 -9.04094714328551781E+04
 -8.92850156295711495E+04 -8.81745280420256313E+04 -8.70778351542914024E+04
 -8.59947656058913271E+04 -8.49251501650234859E+04 -8.38688217021179880E+04
 -8.28256151637227158E+04 -8.17953675467135909E+04 -8.07779178728245461E+04
 -7.97731071634949622E+04 -7.87807784150285588E+04 -7.78007765740613395E+04
 -7.68329485133343842E+04 -7.58771430077669356E+04 -7.49332107108277996E+04
 -7.40010041311992682E+04 -7.30803776097314258E+04 -7.21711872966826777E+04
 -7.12732911292427016E+04 -7.03865488093352324E+04 -6.95108217816959950E+04
 -6.86459732122232090E+04 -6.77918679665970121E+04 -6.69483725891643699E+04
 -6.61153552820865734E+04 -6.52926858847454423E+04 -6.44802358534054947E+04
 -6.36778782411288412E+04 -6.28854876779392216E+04 -6.21029403512330318E+04
 -6.13301139864332290E+04 -6.05668878278836637E+04 -5.98131426199808993E+04
 -5.90687605885400990E+04 -5.83336254223928190E+04 -5.76076222552130930E+04
 -5.68906376475692741E+04 -5.61825595691990966E+04 -5.54832773815044566E+04
 -5.47926818202642680E+04 -5.41106649785615082E+04 -5.34371202899226409E+04
 -5.27719425116664497E+04 -5.21150277084595073E+04 -5.14662732360763257E+04
 -5.08255777253609413E+04 -5.01928410663877366E+04 -4.95679643928191799E+04
 -4.89508500664576277E+04 -4.83414016619894392E+04 -4.77395239519181778E+04
 -4.71451228916852197E+04 -4.65581056049751351E+04 -4.59783803692034926E+04
 -4.54058566011852527E+04 -4.48404448429808690E+04 -4.42820567479183810E+04
 -4.37306050667891031E+04 -4.31860036342146996E+04 -4.26481673551839122E+04
 -4.21170121917561482E+04 -4.15924551499305308E+04 -4.10744142666779371E+04
 -4.05628085971340188E+04 -4.00575582019516951E+04 -3.95585841348103349E+04
 -3.90658084300803312E+04 -3.85791540906408918E+04 -3.80985450758490042E+04
 -3.76239062896581527E+04 -3.71551635688843671E+04 -3.66922436716181546E+04
 -3.62350742657803494E+04 -3.57835839178200476E+04 -3.53377020815532087E+04
 -3.48973590871395718E+04 -3.44624861301967394E+04 -3.40330152610494042E+04
 -3.36088793741120317E+04 -3.31900121974037393E+04 -3.27763482821930666E+04
 -3.23678229927716093E+04 -3.19643724963546447E+04 -3.15659337531070705E+04
 -3.11724445062935702E+04 -3.07838432725508028E+04 -3.04000693322806546E+04
 -3.00210627201626994E+04 -2.96467642157845403E+04 -2.92771153343887236E+04
 -2.89120583177343215E+04 -2.85515361250722235E+04 -2.81954924242325142E+04
 -2.78438715828224522E+04 -2.74966186595339896E+04 -2.71536793955591456E+04
 -2.68150002061120213E+04 -2.64805281720561543E+04 -2.61502110316359685E+04
 -2.58239971723107628E+04 -2.55018356226903416E+04 -2.51836760445707114E+04
 -2.48694687250686766E+04 -2.45591645688543213E+04 -2.42527150904797709E+04
 -2.39500724068034324E+04 -2.36511892295082434E+04 -2.33560188577128720E+04
 -2.30645151706747929E+04 -2.27766326205838741E+04 -2.24923262254456458E+04
 -2.22115515620528640E+04 -2.19342647590443994E+04 -2.16604224900504523E+04
 -2.13899819669227873E+04 -2.11229009330492045E+04 -2.08591376567509797E+04
 -2.05986509247623108E+04 -2.03414000357908990E+04 -2.00873447941583545E+04
 -1.98364455035197861E+04 -1.95886629606612623E+04 -1.93439584493744187E+04
 -1.91022937344071652E+04 -1.88636310554894662E+04 -1.86279331214334634E+04
 -1.83951631043068010E+04 -1.81652846336783623E+04 -1.79382617909355395E+04
 -1.77140591036720180E+04 -1.74926415401453924E+04 -1.72739745038035726E+04
 -1.70580238278791658E+04 -1.68447557700511315E+04 -1.66341370071726196E+04
 -1.64261346300644400E+04 -1.62207161383731236E+04 -1.60178494354929007E+04
 -1.58175028235508235E+04 -1.56196449984540704E+04 -1.54242450449989319E+04
 -1.52312724320404704E+04 -1.50406970077221922E+04 -1.48524889947650718E+04
 -1.46666189858149974E+04 -1.44830579388481365E+04 -1.43017771726333085E+04
 -1.41227483622507443E+04 -1.39459435346665978E+04 -1.37713350643623417E+04
 -1.35988956690185678E+04 -1.34285984052523436E+04 -1.32604166644075685E+04
 -1.30943241683976503E+04 -1.29302949655998018E+04 -1.27683034268003958E+04
 -1.26083242411906776E+04 -1.24503324124122264E+04 -1.22943032546516060E+04
 -1.21402123887834732E+04 -1.19880357385616880E+04 -1.18377495268577059E+04
 -1.16893302719457188E+04 -1.15427547838339997E+04 -1.13980001606417827E+04
 -1.12550437850212111E+04 -1.11138633206237519E+04 -1.09744367086104685E+04
 -1.08367421642057598E+04 -1.07007581732938179E+04 -1.05664634890574889E+04
 -1.04338371286588408E+04 -1.03028583699609935E+04 -1.01735067482907325E+04
 -1.00457620532413093E+04 -9.91960432551501981E+03 -9.79501385380501415E+03
 -9.67197117171582977E+03 -9.55045705472227564E+03 -9.43045251716605526E+03
 -9.31193880928972612E+03 -9.19489741430757749E+03 -9.07931004551285150E+03
 -8.96515864342099485E+03 -8.85242537294835893E+03 -8.74109262062600465E+03
 -8.63114299184815718E+03 -8.52255930815482498E+03 -8.41532460454825559E+03
 -8.30942212684271544E+03 -8.20483532904721687E+03 -8.10154787078083154E+03
 -7.99954361472007167E+03 -7.89880662407807540E+03 -7.79932116011510152E+03
 -7.70107167967996793E+03 -7.60404283278210914E+03 -7.50821946019375991E+03
 -7.41358659108202210E+03 -7.32012944067033186E+03 -7.22783340792901890E+03
 -7.13668407329460661E+03 -7.04666719641744839E+03 -6.95776871393739930E+03
 -6.86997473728714431E+03 -6.78327155052283251E+03 -6.69764560818172959E+03
 -6.61308353316647390E+03 -6.52957211465569890E+03 -6.44709830604059789E+03
 -6.36564922288718753E+03 -6.28521214092392347E+03 -6.20577449405431344E+03
 -6.12732387239431409E+03 -6.04984802033409323E+03 -5.97333483462392542E+03
 -5.89777236248391728E+03 -5.82314879973721963E+03 -5.74945248896650992E+03
 -5.67667191769337842E+03 -5.60479571658037548E+03 -5.53381265765546232E+03
 -5.46371165255850792E+03 -5.39448175080965939E+03 -5.32611213809922629E+03
 -5.25859213459885450E+03 -5.19191119329374396E+03 -5.12605889833558740E+03
 -5.06102496341603910E+03 -4.99679923016041812E+03 -4.93337166654139583E+03
 -4.87073236531245584E+03 -4.80887154246082264E+03 -4.74777953567967506E+03
 -4.68744680285937284E+03 -4.62786392059744139E+03 -4.56902158272714951E+03
 -4.51091059886436506E+03 -4.45352189297253335E+03 -4.39684650194549704E+03
 -4.34087557420797475E+03 -4.28560036833345839E+03 -4.23101225167931989E+03
 -4.17710269903891094E+03 -4.12386329131045113E+03 -4.07128571418246474E+03
 -4.01936175683562351E+03 -3.96808331066071605E+03 -3.91744236799260034E+03
 -3.86743102085991131E+03 -3.81804145975032270E+03 -3.76926597239121156E+03
 -3.72109694254546503E+03 -3.67352684882230551E+03 -3.62654826350290659E+03
 -3.58015385138062447E+03 -3.53433636861567720E+03 -3.48908866160406478E+03
 -3.44440366586057507E+03 -3.40027440491568268E+03 -3.35669398922618484E+03
 -3.31365561509938061E+03 -3.27115256363063645E+03 -3.22917819965417311E+03
 -3.18772597070689926E+03 -3.14678940600512942E+03 -3.10636211543403215E+03
 -3.06643778854963284E+03 -3.02701019359323118E+03 -2.98807317651806670E+03
 -2.94962066002807069E+03 -2.91164664262857514E+03 -2.87414519768879745E+03
 -2.83711047251597756E+03 -2.80053668744100605E+03 -2.76441813491540279E+03
 -2.72874917861949552E+03 -2.69352425258166613E+03 -2.65873786030851898E+03
 -2.62438457392582586E+03 -2.59045903333012393E+03 -2.55695594535081591E+03
 -2.52387008292264818E+03 -2.49119628426843201E+03 -2.45892945209187064E+03
 -2.42706455278037447E+03 -2.39559661561772054E+03 -2.36452073200644099E+03
 -2.33383205469981203E+03 -2.30352579704331856E+03 -2.27359723222547109E+03
 -2.24404169253784858E+03 -2.21485456864426533E+03 -2.18603130885892006E+03
 -2.15756741843342206E+03 -2.12945845885258404E+03 -2.10170004713884828E+03
 -2.07428785516525431E+03 -2.04721760897681656E+03 -2.02048508812021919E+03
 -1.99408612498170010E+03 -1.96801660413302784E+03 -1.94227246168546276E+03
 -1.91684968465158909E+03 -1.89174431031491918E+03 -1.86695242560716883E+03
 -1.84247016649308716E+03 -1.81829371736275471E+03 -1.79441931043124237E+03
 -1.77084322514552946E+03 -1.74756178759858926E+03 -1.72457136995053293E+03
 -1.70186838985673216E+03 -1.67944930990281000E+03 -1.65731063704641224E+03
 -1.63544892206567124E+03 -1.61386075901425647E+03 -1.59254278468293387E+03
 -1.57149167806753940E+03 -1.55070415984327246E+03 -1.53017699184523440E+03
 -1.50990697655510462E+03 -1.48989095659389159E+03 -1.47012581422065409E+03
 -1.45060847083712110E+03 -1.43133588649812282E+03 -1.41230505942774653E+03
 -1.39351302554114591E+03 -1.37495685797191481E+03 -1.35663366660495103E+03
 -1.33854059761473150E+03 -1.32067483300891922E+03 -1.30303359017722823E+03
 -1.28561412144547239E+03 -1.26841371363472149E+03 -1.25142968762549185E+03
 -1.23465939792690051E+03 -1.21810023225071268E+03 -1.20174961109020933E+03
 -1.18560498730380846E+03 -1.16966384570337482E+03 -1.15392370264714259E+03
 -1.13838210563719440E+03 -1.12303663292142869E+03 -1.10788489309994929E+03
 -1.09292452473581875E+03 -1.07815319597011330E+03 -1.06356860414121456E+03
 -1.04916847540828803E+03 -1.03495056437888161E+03 -1.02091265374059265E+03
 -1.00705255389674596E+03 -9.93368102606030902E+02 -9.79857164626041026E+02
 -9.66517631360668020E+02 -9.53347420511296718E+02 -9.40344475731755210E+02
 -9.27506766286968400E+02 -9.14832286715271493E+02 -9.02319056494337815E+02
 -8.89965119710676731E+02 -8.77768544732657460E+02 -8.65727423887022951E+02
 -8.53839873138849043E+02 -8.42104031774914233E+02 -8.30518062090441958E+02
 -8.19080149079179705E+02 -8.07788500126785948E+02 -7.96641344707486041E+02
 -7.85636934083972051E+02 -7.74773541010515942E+02 -7.64049459439268503E+02
 -7.53463004229718535E+02 -7.43012510861290593E+02 -7.32696335149053766E+02
 -7.22512852962526608E+02 -7.12460459947555933E+02 -7.02537571251252302E+02
 -6.92742621249967783E+02 -6.83074063280301516E+02 -6.73530369373119470E+02
 -6.64110029990580188E+02 -6.54811553766156067E+02 -6.45633467247643466E+02
 -6.36574314643155617E+02 -6.27632657570095375E+02 -6.18807074807105437E+02
 -6.10096162048995097E+02 -6.01498531664644702E+02 -5.93012812457891869E+02
 -5.84637649431401996E+02 -5.76371703553529528E+02 -5.68213651528179412E+02
 -5.60162185567674555E+02 -5.52216013168641780E+02 -5.44373856890927641E+02
 -5.36634454139558557E+02 -5.28996556949756609E+02 -5.21458931775029441E+02
 -5.14020359278352771E+02 -5.06679634126458382E+02 -4.99435564787252986E+02
 -4.92286973330383034E+02 -4.85232695230969739E+02 -4.78271579176534999E+02
 -4.71402486877140575E+02 -4.64624292878764493E+02 -4.57935884379937931E+02
 -4.51336161051666409E+02 -4.44824034860660959E+02 -4.38398429895901359E+02
 -4.32058282198559652E+02 -4.25802539595303983E+02 -4.19630161535011212E+02
 -4.13540118928909408E+02 -4.07531393994174152E+02 -4.01602980101002288E+02
 -3.95753881623183418E+02 -3.89983113792191091E+02 -3.84289702554812436E+02
 -3.78672684434335508E+02 -3.73131106395309871E+02 -3.67664025711895817E+02
 -3.62270509839816384E+02 -3.56949636291922047E+02 -3.51700492517377654E+02
 -3.46522175784476644E+02 -3.41413793067089046E+02 -3.36374460934741137E+02
 -3.31403305446327295E+02 -3.26499462047446798E+02 -3.21662075471358321E+02
 -3.16890299643539379E+02 -3.12183297589835206E+02 -3.07540241348177290E+02
 -3.02960311883847112E+02 -2.98442699008256284E+02 -2.93986601301210840E+02
 -2.89591226036623993E+02 -2.85255789111633362E+02 -2.80979514979076725E+02
 -2.76761636583274878E+02 -2.72601395299063427E+02 -2.68498040874011508E+02
 -2.64450831373761105E+02 -2.60459033130412024E+02 -2.56521920693874733E+02
 -2.52638776786107826E+02 -2.48808892258148973E+02 -2.45031566049844457E+02
 -2.41306105152176514E+02 -2.37631824572082138E+02 -2.34008047299649917E+02
 -2.30434104277578456E+02 -2.26909334372772292E+02 -2.23433084349946768E+02
 -2.20004708847108589E+02 -2.16623570352771935E+02 -2.13289039184766665E+02
 -2.10000493470490056E+02 -2.06757319128448216E+02 -2.03558909850929211E+02
 -2.00404667087646914E+02 -1.97294000030187817E+02 -1.94226325597094728E+02
 -1.91201068419412081E+02 -1.88217660826522518E+02 -1.85275542832084000E+02
 -1.82374162119898159E+02 -1.79512974029527157E+02 -1.76691441541473296E+02
 -1.73909035261738637E+02 -1.71165233405578959E+02 -1.68459521780268119E+02
 -1.65791393766687492E+02 -1.63160350299557450E+02 -1.60565899846130350E+02
 -1.58007558383161637E+02 -1.55484849371984808E+02 -1.52997303731512119E+02
 -1.50544459808991718E+02 -1.48125863348351828E+02 -1.45741067455968647E+02
 -1.43389632563699280E+02 -1.41071126389026347E+02 -1.38785123892165501E+02
 -1.36531207229995232E+02 -1.34308965706673462E+02 -1.32117995720814008E+02
 -1.29957900709102177E+02 -1.27828291086239403E+02 -1.25728784181113696E+02
 -1.23659004169103184E+02 -1.21618582000429711E+02 -1.19607155324491728E+02
 -1.17624368410117626E+02 -1.15669872061678888E+02 -1.13743323531037177E+02
 -1.11844386425301309E+02 -1.09972730610382200E+02 -1.08128032110350773E+02
 -1.06309973002616289E+02 -1.04518241308960498E+02 -1.02752530882475057E+02
 -1.01012541290468633E+02 -9.92979776934232063E+01 -9.76085507200963605E+01
 -9.59439763388817397E+01 -9.43039757255552615E+01 -9.26882751275500567E+01
 -9.10966057249178789E+01 -8.95287034881488495E+01 -8.79843090330351600E+01
 -8.64631674727773571E+01 -8.49650282675436443E+01 -8.34896450717058940E+01
 -8.20367755789840913E+01 -8.06061813657447743E+01 -7.91976277327054845E+01
 -7.78108835453087835E+01 -7.64457210730358838E+01 -7.51019158279397772E+01
 -7.37792464026822330E+01 -7.24774943083680512E+01 -7.11964438124750387E+01
 -6.99358817771834964E+01 -6.86955974984129938E+01 -6.74753825458771104E+01
 -6.62750306044706150E+01 -6.50943373173044932E+01 -6.39331001307058315E+01
 -6.27911181414984227E+01 -6.16681919468790412E+01 -6.05641234972027291E+01
 -5.94787159519859827E+01 -5.84117735394330779E+01 -5.73631014197848046E+01
 -5.63325055527827629E+01 -5.53197925695340871E+01 -5.43247696490536001E+01
 -5.33472443997498118E+01 -5.23870247461112228E+01 -5.14439188208368847E+01
 -5.05177348626435361E+01 -4.96082811199672875E+01 -4.87153657607638237E+01
 -4.78387967885959000E+01 -4.69783819651808727E+01 -4.61339287395543991E+01
 -4.53052441839883215E+01 -4.44921349367844243E+01 -4.36944071520505872E+01
 -4.29118664565371404E+01 -4.21443179135994868E+01 -4.13915659943316214E+01
 -4.06534145558957576E+01 -3.99296668270519675E+01 -3.92201254008721492E+01
 -3.85245922346021814E+01 -3.78428686566150390E+01 -3.71747553803780661E+01
 -3.65200525253365882E+01 -3.58785596445966064E+01 -3.52500757592685332E+01
 -3.46343993993158676E+01 -3.40313286507317159E+01 -3.34406612088491855E+01
 -3.28621944375722350E+01 -3.22957254342967488E+01 -3.17410511002742801E+01
 -3.11979682161550862E+01 -3.06662735224313217E+01 -3.01457638044868581E+01
 -2.96362359819465730E+01 -2.91374872020050688E+01 -2.86493149364035631E+01
 -2.81715170817154821E+01 -2.77038920625804082E+01 -2.72462389375295047E+01
 -2.67983575070373661E+01 -2.63600484234244377E+01 -2.59311133022311289E+01
 -2.55113548346810468E+01 -2.51005769008487256E+01 -2.46985846831457430E+01
 -2.43051847797401699E+01 -2.39201853175254016E+01 -2.35433960642578484E+01
 -2.31746285394874612E+01 -2.28136961239107166E+01 -2.24604141667836643E+01
 -2.21146000910401561E+01 -2.17760734957720068E+01 -2.14446562557380886E+01
 -2.11201726175827318E+01 -2.08024492924586006E+01 -2.04913155447633955E+01
 -2.01866032767186567E+01 -1.98881471085350050E+01 -1.95957844539290029E+01
 -1.93093555907769314E+01 -1.90287037267131254E+01 -1.87536750595089003E+01
 -1.84841188320626699E+01 -1.82198873818926330E+01 -1.79608361850380298E+01
 -1.77068238942908742E+01 -1.74577123717106133E+01 -1.72133667153989407E+01
 -1.69736552805384413E+01 -1.67384496947229664E+01 -1.65076248676328881E+01
 -1.62810589951319109E+01 -1.60586335578851269E+01 -1.58402333146193559E+01
 -1.56257462901670792E+01 -1.54150637584529431E+01 -1.52080802205976919E+01
 -1.50046933783273744E+01 -1.48048041028853703E+01 -1.46083163996509153E+01
 -1.44151373686703046E+01 -1.42251771613050728E+01 -1.40383489331961435E+01
 -1.38545687937339359E+01 -1.36737557522149160E+01 -1.34958316608540283E+01
 -1.33207211548188234E+01 -1.31483515894481577E+01 -1.29786529748112702E+01
 -1.28115579078135937E+01 -1.26470015020653648E+01 -1.24849213157701744E+01
 -1.23252572779354352E+01 -1.21679516132498922E+01 -1.20129487660067191E+01
 -1.18601953234698545E+01 -1.17096399390817734E+01 -1.15612332558901851E+01
 -1.14149278305350492E+01 -1.12706780580880821E+01 -1.11284400979841305E+01
 -1.09881718012333085E+01 -1.08498326390585333E+01 -1.07133836330695988E+01
 -1.05787872870596278E+01 -1.04460075204938398E+01 -1.03150096037494965E+01
 -1.01857600951594396E+01 -1.00582267799060752E+01 -9.93237861080886653E+00
 -9.80818565104281248E+00 -9.68561901882104337E+00 -9.56465083406904348E+00
 -9.44525416710791887E+00 -9.32740298935991063E+00 -9.21107212608480097E+00
 -9.09623721114416917E+00 -8.98287464378404366E+00 -8.87096154742009446E+00
 -8.76047573040225913E+00 -8.65139564872967703E+00 -8.54370037068063759E+00
 -8.43736954331694200E+00 -8.33238336081720199E+00 -8.22872253458948499E+00
 -8.12636826510954080E+00 -8.02530221542795985E+00 -7.92550648628683874E+00
 -7.82696359278439502E+00 -7.72965644252413497E+00 -7.63356831518414669E+00
 -7.53868284344126405E+00 -7.44498399518459131E+00 -7.35245605695258941E+00
 -7.26108361852888784E+00 -7.17085155863208090E+00 -7.08174503163641766E+00
 -6.99374945526104419E+00 -6.90685049916736471E+00 -6.82103407440545340E+00
 -6.73628632365278612E+00 -6.65259361219066570E+00 -6.56994251956536779E+00
 -6.48831983188385486E+00 -6.40771253469597557E+00 -6.32810780641750004E+00
 -6.24949301225111054E+00 -6.17185569856432004E+00 -6.09518358768636137E+00
 -6.01946457308796923E+00 -5.94468671491075362E+00 -5.87083823581483610E+00
 -5.79790751711586783E+00 -5.72588309518463934E+00 -5.65475365808455077E+00
 -5.58450804242428056E+00 -5.51513523040466147E+00 -5.44662434704086706E+00
 -5.37896465754248787E+00 -5.31214556483562550E+00 -5.24615660721282762E+00
 -5.18098745609780487E+00 -5.11662791391342964E+00 -5.05306791204236738E+00
 -4.99029750887108747E+00 -4.92830688790877680E+00 -4.86708635597379224E+00
 -4.80662634144088852E+00 -4.74691739254335410E+00 -4.68795017572491446E+00
 -4.62971547403672812E+00 -4.57220418557541119E+00 -4.51540732195859462E+00
 -4.45931600683483520E+00 -4.40392147442521065E+00 -4.34921506809409131E+00
 -4.29518823894717183E+00 -4.24183254445479108E+00 -4.18913964709906850E+00
 -4.13710131304339068E+00 -4.08570941082312089E+00 -4.03495591005646226E+00
 -3.98483288017452209E+00 -3.93533248916985468E+00 -3.88644700236270690E+00
 -3.83816878118445537E+00 -3.79049028197755344E+00 -3.74340405481165561E+00
 -3.69690274231539284E+00 -3.65097907852348680E+00 -3.60562588773880099E+00
 -3.56083608340902558E+00 -3.51660266701779811E+00 -3.47291872698988202E+00
 -3.42977743761016862E+00 -3.38717205795643173E+00 -3.34509593084538581E+00
 -3.30354248179205001E+00 -3.26250521798208570E+00 -3.22197772725700071E+00
 -3.18195367711205224E+00 -3.14242681370659671E+00 -3.10339096088678934E+00
 -3.06484001922046589E+00 -3.02676796504401047E+00 -2.98916884952110484E+00
 -2.95203679771316274E+00 -2.91536600766133880E+00 -2.87915074947993155E+00
 -2.84338536446106760E+00 -2.80806426419048938E+00 -2.77318192967437049E+00
 -2.73873291047693268E+00 -2.70471182386882036E+00 -2.67111335398600902E+00
 -2.63793225099920914E+00 -2.60516333029356995E+00 -2.57280147165854611E+00
 -2.54084161848788659E+00 -2.50927877698950885E+00 -2.47810801540521197E+00
 -2.44732446324007613E+00 -2.41692331050144160E+00 -2.38689980694734771E+00
 -2.35724926134427459E+00 -2.32796704073415217E+00 -2.29904856971042859E+00
 -2.27048932970317763E+00 -2.24228485827304302E+00 -2.21443074841397758E+00
 -2.18692264786464685E+00 -2.15975625842837626E+00 -2.13292733530154921E+00
 -2.10643168641033496E+00 -2.08026517175569436E+00 -2.05442370276647557E+00
 -2.02890324166056946E+00 -2.00369980081401255E+00 -1.97880944213789278E+00
 -1.95422827646303254E+00 -1.92995246293227618E+00 -1.90597820840037380E+00
 -1.88230176684127959E+00 -1.85891943876283050E+00 -1.83582757062868995E+00
 -1.81302255428747805E+00 -1.79050082640900121E+00 -1.76825886792745268E+00
 -1.74629320349156880E+00 -1.72460040092159317E+00 -1.70317707067299140E+00
 -1.68201986530682435E+00 -1.66112547896670626E+00 -1.64049064686226576E+00
 -1.62011214475900434E+00 -1.59998678847450448E+00 -1.58011143338090188E+00
 -1.56048297391352997E+00 -1.54109834308566196E+00 -1.52195451200928855E+00
 -1.50304848942185720E+00 -1.48437732121887378E+00 -1.46593808999232378E+00
 -1.44772791457480721E+00 -1.42974394958937157E+00 -1.41198338500489773E+00
 -1.39444344569703249E+00 -1.37712139101457542E+00 -1.36001451435124010E+00
 -1.34312014272274705E+00 -1.32643563634915140E+00 -1.30995838824238886E+00
 -1.29368582379892416E+00 -1.27761540039745070E+00 -1.26174460700162205E+00
 -1.24607096376767501E+00 -1.23059202165697101E+00 -1.21530536205330963E+00
 -1.20020859638502775E+00 -1.18529936575177497E+00 -1.17057534055593182E+00
 -1.15603422013860579E+00 -1.14167373242014425E+00 -1.12749163354512905E+00
 -1.11348570753175613E+00 -1.09965376592559072E+00 -1.08599364745761418E+00
 -1.07250321770652346E+00 -1.05918036876522703E+00 -1.04602301891146920E+00
 -1.03302911228256522E+00 -1.02019661855416977E+00 -1.00752353262303163E+00
 -9.95007874293688199E-01 -9.82647687969063210E-01 -9.70441042344897697E-01
 -9.58386030107974851E-01 -9.46480767638109399E-01 -9.34723394713817379E-01
 -9.23112074221661749E-01 -9.11644991869189569E-01 -9.00320355901452096E-01
 -8.89136396821041508E-01 -8.78091367111595855E-01 -8.67183540964754140E-01
 -8.56411214010485367E-01 -8.45772703050788777E-01 -8.35266345796682241E-01
 -8.24890500608468469E-01 -8.14643546239228300E-01 -8.04523881581492351E-01
                             </PP_AE_VLOC> 
                                      </PP_PAW> 
 <PP_GIPAW gipaw_data_format="2">
  <PP_GIPAW_CORE_ORBITALS number_of_core_orbitals=" 3">
   <PP_GIPAW_CORE_ORBITAL.1 type="real" size="   999" columns="3" index="1" label="1S" n="1" l="0">
  7.45309022203435173E-03  7.54610379966745397E-03  7.64027701858377949E-03
  7.73562430725091392E-03  7.83216027176186422E-03  7.92989970171231739E-03
  8.02885757118358689E-03  8.12904903612565732E-03  8.23048944120046908E-03
  8.33319432376275829E-03  8.43717941209290792E-03  8.54246062722233482E-03
  8.64905408991404646E-03  8.75697612151006034E-03  8.86624324197604619E-03
  8.97687217741208361E-03  9.08887986317473417E-03  9.20228344116153993E-03
  9.31710026570476031E-03  9.43334790858592863E-03  9.55104415671092881E-03
  9.67020701639647283E-03  9.79085471955230650E-03  9.91300572171055147E-03
  1.00366787057207321E-02  1.01618925883262736E-02  1.02886665181667544E-02
  1.04170198800167969E-02  1.05469723010126297E-02  1.06785436483571323E-02
  1.08117540351100293E-02  1.09466238250578440E-02  1.10831736305728023E-02
  1.12214243203765628E-02  1.13613970216718992E-02  1.15031131201065971E-02
  1.16465942681465359E-02  1.17918623840734885E-02  1.19389396563842638E-02
  1.20878485495505630E-02  1.22386118024844937E-02  1.23912524369305457E-02
  1.25457937578125397E-02  1.27022593568346508E-02  1.28606731186558191E-02
  1.30210592198790331E-02  1.31834421376046604E-02  1.33478466490356100E-02
  1.35142978373515195E-02  1.36828210953523540E-02  1.38534421272856582E-02
  1.40261869560924790E-02  1.42010819228962429E-02  1.43781536954989460E-02
  1.45574292680137121E-02  1.47389359684608357E-02  1.49227014600653435E-02
  1.51087537471254977E-02  1.52971211782153040E-02  1.54878324505084812E-02
  1.56809166144674939E-02  1.58764030771583360E-02  1.60743216078639839E-02
  1.62747023409379604E-02  1.64775757818402674E-02  1.66829728099878449E-02
  1.68909246848018973E-02  1.71014630489389370E-02  1.73146199339903363E-02
  1.75304277644457857E-02  1.77489193627086428E-02  1.79701279541123193E-02
  1.81940871709793603E-02  1.84208310588844897E-02  1.86503940797094342E-02
  1.88828111189858830E-02  1.91181174884174701E-02  1.93563489334735057E-02
  1.95975416365479077E-02  1.98417322234932351E-02  2.00889577686060965E-02
  2.03392557993147954E-02  2.05926643031091143E-02  2.08492217311318923E-02
  2.11089670054266446E-02  2.13719395236528949E-02  2.16381791646062596E-02
  2.19077262950524397E-02  2.21806217740499710E-02  2.24569069599514400E-02
  2.27366237161950382E-02  2.30198144164830872E-02  2.33065219520398395E-02
  2.35967897370684687E-02  2.38906617147357989E-02  2.41881823643167286E-02
  2.44893967068388931E-02  2.47943503114724205E-02  2.51030893026827212E-02
  2.54156603662643241E-02  2.57321107558407570E-02  2.60524883001664251E-02
  2.63768414096531706E-02  2.67052190828529906E-02  2.70376709139183470E-02
  2.73742470996215653E-02  2.77149984460500591E-02  2.80599763759423887E-02
  2.84092329361765039E-02  2.87628208049941041E-02  2.91207932991335502E-02
  2.94832043815681198E-02  2.98501086691650847E-02  3.02215614402796783E-02
  3.05976186422995192E-02  3.09783368996061348E-02  3.13637735215690425E-02
  3.17539865105152669E-02  3.21490345697344956E-02  3.25489771115755264E-02
  3.29538742658265771E-02  3.33637868880626437E-02  3.37787765680623159E-02
  3.41989056383067078E-02  3.46242371825278006E-02  3.50548350444639320E-02
  3.54907638366787209E-02  3.59320889494386050E-02  3.63788765596851915E-02
  3.68311936401028855E-02  3.72891079682714302E-02  3.77526881359150634E-02
  3.82220035582884615E-02  3.86971244836329248E-02  3.91781220027254060E-02
  3.96650680585265425E-02  4.01580354559276376E-02  4.06570978715978665E-02
  4.11623298639319235E-02  4.16738068830986574E-02  4.21916052811912926E-02
  4.27158023224783537E-02  4.32464761937624217E-02  4.37837060148403359E-02
  4.43275718490660012E-02  4.48781547140183826E-02  4.54355365922746446E-02
  4.59998004422899620E-02  4.65710302093836417E-02  4.71493108368328251E-02
  4.77347282770743259E-02  4.83273695030144793E-02  4.89273225194486322E-02
  4.95346763745900670E-02  5.01495211717091563E-02  5.07719480808836165E-02
  5.14020493508595688E-02  5.20399183210249472E-02  5.26856494334950395E-02
  5.33393382453109660E-02  5.40010814407514764E-02  5.46709768437558807E-02
  5.53491234304631791E-02  5.60356213418676322E-02  5.67305718965879502E-02
  5.74340776037522288E-02  5.81462421759986192E-02  5.88671705425924049E-02
  5.95969688626595412E-02  6.03357445385372115E-02  6.10836062292415272E-02
  6.18406638640413564E-02  6.26070286561512535E-02  6.33828131165640463E-02
  6.41681310679903805E-02  6.49630976589154474E-02  6.57678293777735068E-02
  6.65824440672381362E-02  6.74070609385986619E-02  6.82418005862966276E-02
  6.90867850025942282E-02  6.99421375923411220E-02  7.08079831878590388E-02
  7.16844480639058645E-02  7.25716599527702483E-02  7.34697480595573882E-02
  7.43788430775492310E-02  7.52990772036675748E-02  7.62305841539821921E-02
  7.71734991794522374E-02  7.81279590817891001E-02  7.90941022293848717E-02
  8.00720685732622256E-02  8.10619996632716139E-02  8.20640386644345271E-02
  8.30783303733046291E-02  8.41050212343440740E-02  8.51442593566404116E-02
  8.61961945306709415E-02  8.72609782450063098E-02  8.83387637032443246E-02
  8.94297058411838014E-02  9.05339613438788937E-02  9.16516886627992966E-02
  9.27830480333661084E-02  9.39282014923274733E-02  9.50873128951889579E-02
  9.62605479340796349E-02  9.74480741553884200E-02  9.86500609775159548E-02
  9.98666797090389385E-02  1.01098103566535327E-01  1.02344507692737938E-01
  1.03606069174899090E-01  1.04882967062802243E-01  1.06175382387374242E-01
  1.07483498179052978E-01  1.08807499486202122E-01  1.10147573393974144E-01
  1.11503909042667035E-01  1.12876697646737245E-01  1.14266132513465055E-01
  1.15672409061811116E-01  1.17095724841511331E-01  1.18536279551784252E-01
  1.19994275060714625E-01  1.21469915423982375E-01  1.22963406904324848E-01
  1.24474957990438076E-01  1.26004779416386575E-01  1.27553084180718868E-01
  1.29120087565794767E-01  1.30706007157079279E-01  1.32311062862404349E-01
  1.33935476931378139E-01  1.35579473974608039E-01  1.37243280983157023E-01
  1.38927127347752200E-01  1.40631244878222261E-01  1.42355867822711896E-01
  1.44101232887032416E-01  1.45867579253902535E-01  1.47655148602140490E-01
  1.49464185125949028E-01  1.51294935553885679E-01  1.53147649168185240E-01
  1.55022577823480029E-01  1.56919975966095304E-01  1.58840100652566513E-01
  1.60783211568750140E-01  1.62749571048271008E-01  1.64739444091234505E-01
  1.66753098382724091E-01  1.68790804310986309E-01  1.70852834985931151E-01
  1.72939466256890301E-01  1.75050976730815794E-01  1.77187647789912806E-01
  1.79349763609183449E-01  1.81537611174044267E-01  1.83751480297247638E-01
  1.85991663636126098E-01  1.88258456709301358E-01  1.90552157913111753E-01
  1.92873068538162967E-01  1.95221492785148026E-01  1.97597737780695115E-01
  2.00002113592979897E-01  2.02434933246671583E-01  2.04896512737981512E-01
  2.07387171049223384E-01  2.09907230162805880E-01  2.12457015075262073E-01
  2.15036853810675221E-01  2.17647077433561792E-01  2.20288020061701117E-01
  2.22960018878318483E-01  2.25663414143676438E-01  2.28398549206529050E-01
  2.31165770514927926E-01  2.33965427626340122E-01  2.36797873217532401E-01
  2.39663463093831852E-01  2.42562556197617935E-01  2.45495514616395988E-01
  2.48462703590325962E-01  2.51464491518935018E-01  2.54501249967143794E-01
  2.57573353670830729E-01  2.60681180541552981E-01  2.63825111670404566E-01
  2.67005531331263091E-01  2.70222826983286590E-01  2.73477389272480886E-01
  2.76769612032338741E-01  2.80099892283797058E-01  2.83468630234233576E-01
  2.86876229275452532E-01  2.90323095980649759E-01  2.93809640100552272E-01
  2.97336274558455627E-01  3.00903415444146616E-01  3.04511482006665057E-01
  3.08160896646083315E-01  3.11852084904067739E-01  3.15585475453192821E-01
  3.19361500084947458E-01  3.23180593696546836E-01  3.27043194276447013E-01
  3.30949742888443643E-01  3.34900683654338505E-01  3.38896463735129772E-01
  3.42937533310826770E-01  3.47024345558681668E-01  3.51157356629825446E-01
  3.55337025624248071E-01  3.59563814564107243E-01  3.63838188365400383E-01
  3.68160614807822695E-01  3.72531564502798784E-01  3.76951510859626304E-01
  3.81420930049679197E-01  3.85940300968717398E-01  3.90510105197138579E-01
  3.95130826958134396E-01  3.99802953073703227E-01  4.04526972918442029E-01
  4.09303378371107474E-01  4.14132663763900233E-01  4.19015325829344865E-01
  4.23951863644725147E-01  4.28942778574024353E-01  4.33988574207275823E-01
  4.39089756297300848E-01  4.44246832693790006E-01  4.49460313274587242E-01
  4.54730709874142991E-01  4.60058536209063063E-01  4.65444307800676582E-01
  4.70888541894537993E-01  4.76391757376848801E-01  4.81954474687677104E-01
  4.87577215730893354E-01  4.93260503780750481E-01  4.99004863385038133E-01
  5.04810820264720239E-01  5.10678901209967062E-01  5.16609633972531568E-01
  5.22603547154374959E-01  5.28661170092438848E-01  5.34783032739477471E-01
  5.40969665540874556E-01  5.47221599307347595E-01  5.53539365083450363E-01
  5.59923494011780210E-01  5.66374517192793636E-01  5.72892965540171106E-01
  5.79479369631589747E-01  5.86134259554820347E-01  5.92858164749057837E-01
  5.99651613841375886E-01  6.06515134478216811E-01  6.13449253151807761E-01
  6.20454495021396601E-01  6.27531383729206138E-01  6.34680441211019297E-01
  6.41902187501273036E-01  6.49197140532552841E-01  6.56565815929376906E-01
  6.64008726796172732E-01  6.71526383499326918E-01  6.79119293443198324E-01
  6.86787960839994160E-01  6.94532886473375299E-01  7.02354567455702350E-01
  7.10253496978778931E-01  7.18230164058013987E-01  7.26285053269868586E-01
  7.34418644482466076E-01  7.42631412579258909E-01  7.50923827175632552E-01
  7.59296352328330260E-01  7.67749446237585231E-01  7.76283560941836481E-01
  7.84899142004919725E-01  7.93596628195610609E-01  8.02376451159407589E-01
  8.11239035082434001E-01  8.20184796347345202E-01  8.29214143181126850E-01
  8.38327475294667668E-01  8.47525183513999303E-01  8.56807649403080740E-01
  8.66175244878015449E-01  8.75628331812596694E-01  8.85167261635064762E-01
  8.94792374915973965E-01  9.04504000947057074E-01  9.14302457310985139E-01
  9.24188049441920456E-01  9.34161070176759312E-01  9.44221799296967923E-01
  9.54370503060916087E-01  9.64607433726612062E-01  9.74932829064751760E-01
  9.85346911861995189E-01  9.95849889414381684E-01  1.00644195301081019E+00
  1.01712327740650399E+00  1.02789402028638688E+00  1.03875432171831439E+00
  1.04970430359607758E+00  1.06074406907213814E+00  1.07187370198003395E+00
  1.08309326624640501E+00  1.09440280529261136E+00  1.10580234142589018E+00
  1.11729187522003870E+00  1.12887138488558891E+00  1.14054082562947001E+00
  1.15230012900414280E+00  1.16414920224621210E+00  1.17608792760452330E+00
  1.18811616165776290E+00  1.20023373462158944E+00  1.21244044964533160E+00
  1.22473608209829576E+00  1.23712037884574921E+00  1.24959305751463656E+00
  1.26215380574911618E+00  1.27480228045600263E+00  1.28753810704021765E+00
  1.30036087863037375E+00  1.31327015529461044E+00  1.32626546324682670E+00
  1.33934629404347638E+00  1.35251210377108522E+00  1.36576231222468936E+00
  1.37909630207739298E+00  1.39251341804126416E+00  1.40601296601980885E+00
  1.41959421225227933E+00  1.43325638245008791E+00  1.44699866092561868E+00
  1.46082018971375249E+00  1.47472006768642960E+00  1.48869734966061640E+00
  1.50275104550003680E+00  1.51688011921107369E+00  1.53108348803325822E+00
  1.54536002152478735E+00  1.55970854064354358E+00  1.57412781682409886E+00
  1.58861657105123100E+00  1.60317347293049428E+00  1.61779713975640149E+00
  1.63248613557884226E+00  1.64723897026833699E+00  1.66205409858080189E+00
  1.67692991922250290E+00  1.69186477391590984E+00  1.70685694646721364E+00
  1.72190466183625901E+00  1.73700608520973621E+00  1.75215932107845118E+00
  1.76736241231955704E+00  1.78261333928467369E+00  1.79791001889482116E+00
  1.81325030374316820E+00  1.82863198120660719E+00  1.84405277256721001E+00
  1.85951033214466355E+00  1.87500224644081714E+00  1.89052603329750091E+00
  1.90607914106884668E+00  1.92165894780933044E+00  1.93726276047884904E+00
  1.95288781416615653E+00  1.96853127133200445E+00  1.98419022107344412E+00
  1.99986167841068574E+00  2.01554258359806093E+00  2.03122980146057364E+00
  2.04692012075766039E+00  2.06261025357575356E+00  2.07829683475129556E+00
  2.09397642132594797E+00  2.10964549203568952E+00  2.12530044683563268E+00
  2.14093760646233777E+00  2.15655321203554884E+00  2.17214342470119792E+00
  2.18770432531767955E+00  2.20323191418734732E+00  2.21872211083526061E+00
  2.23417075383727814E+00  2.24957360069954682E+00  2.26492632779157477E+00
  2.28022453033501993E+00  2.29546372245042463E+00  2.31063933726412829E+00
  2.32574672707761110E+00  2.34078116360160493E+00  2.35573783825724670E+00
  2.37061186254667611E+00  2.38539826849541159E+00  2.40009200916893928E+00
  2.41468795926589452E+00  2.42918091579030149E+00  2.44356559880529289E+00
  2.45783665227079240E+00  2.47198864496761050E+00  2.48601607151042447E+00
  2.49991335345213983E+00  2.51367484048207457E+00  2.52729481172046633E+00
  2.54076747711173434E+00  2.55408697891895597E+00  2.56724739332199325E+00
  2.58024273212165189E+00  2.59306694455227893E+00  2.60571391920512596E+00
  2.61817748606480460E+00  2.63045141866109544E+00  2.64252943633833226E+00
  2.65440520664453494E+00  2.66607234784239067E+00  2.67752443154414133E+00
  2.68875498547233516E+00  2.69975749634834283E+00  2.71052541291043880E+00
  2.72105214906317361E+00  2.73133108715963902E+00  2.74135558141814561E+00
  2.75111896147469404E+00  2.76061453607251428E+00  2.76983559688981273E+00
  2.77877542250671850E+00  2.78742728251228611E+00  2.79578444175224439E+00
  2.80384016471800734E+00  2.81158772007732471E+00  2.81902038534670840E+00
  2.82613145170563529E+00  2.83291422895227196E+00  2.83936205060023594E+00
  2.84546827911586497E+00  2.85122631129502713E+00  2.85662958377829401E+00
  2.86167157870309818E+00  2.86634582949123651E+00  2.87064592676977348E+00
  2.87456552442315116E+00  2.87809834577397705E+00  2.88123818988970015E+00
  2.88397893801204663E+00  2.88631456010575871E+00  2.88823912152288154E+00
  2.88974678977845389E+00  2.89083184143314309E+00  2.89148866907799595E+00
  2.89171178841608745E+00  2.89149584543550420E+00  2.89083562366768554E+00
  2.88972605152477291E+00  2.88816220970920323E+00  2.88613933868838046E+00
  2.88365284622685802E+00  2.88069831496802742E+00  2.87727151005690507E+00
  2.87336838679517692E+00  2.86898509831923576E+00  2.86411800329151278E+00
  2.85876367359499817E+00  2.85291890202037468E+00  2.84658070993482237E+00
  2.83974635492108396E+00  2.83241333837498832E+00  2.82457941304921478E+00
  2.81624259053069714E+00  2.80740114863863921E+00  2.79805363872953272E+00
  2.78819889289585410E+00  2.77783603104459020E+00  2.76696446784053629E+00
  2.75558391949991544E+00  2.74369441041935325E+00  2.73129627962497068E+00
  2.71839018702615043E+00  2.70497711945831609E+00  2.69105839649893808E+00
  2.67663567604081676E+00  2.66171095960665749E+00  2.64628659738885785E+00
  2.63036529299846533E+00  2.61395010790728577E+00  2.59704446556717627E+00
  2.57965215519075608E+00  2.56177733517783723E+00  2.54342453617216124E+00
  2.52459866373324315E+00  2.50530500060838435E+00  2.48554920859027284E+00
  2.46533732994585497E+00  2.44467578840257627E+00  2.42357138967836860E+00
  2.40203132154216981E+00  2.38006315339203356E+00  2.35767483533818023E+00
  2.33487469677862247E+00  2.31167144445506301E+00  2.28807415997696051E+00
  2.26409229680123181E+00  2.23973567665497830E+00  2.21501448539070545E+00
  2.18993926825893048E+00  2.16452092458472256E+00  2.13877070183403628E+00
  2.11270018905470636E+00  2.08632130967595275E+00  2.05964631364947381E+00
  2.03268776891399217E+00  2.00545855216713731E+00  1.97797183892095352E+00
  1.95024109282794456E+00  1.92228005425724491E+00  1.89410272810557645E+00
  1.86572337082990924E+00  1.83715647669257010E+00  1.80841676321486888E+00
  1.77951915584189679E+00  1.75047877182917766E+00  1.72131090337109627E+00
  1.69203100000126749E+00  1.66265465030610571E+00  1.63319756300403540E+00
  1.60367554745394258E+00  1.57410449366681382E+00  1.54450035190350232E+00
  1.51487911194891534E+00  1.48525678215784929E+00  1.45564936837004177E+00
  1.42607285279120344E+00  1.39654317293745711E+00  1.36707620072904668E+00
  1.33768772181309492E+00  1.30839341518486862E+00  1.27920883316336687E+00
  1.25014938176256529E+00  1.22123030148394651E+00  1.19246664854015205E+00
  1.16387327650434025E+00  1.13546481836631274E+00  1.10725566896561456E+00
  1.07925996776463240E+00  1.05149158192208425E+00  1.02396408962923657E+00
  9.96690763678171221E-01  9.69684555242262047E-01  9.42958077863178756E-01
  9.16523591654586745E-01  8.90392987748899967E-01  8.64577773028677998E-01
  8.39089055197106859E-01  8.13937528252187015E-01  7.89133458435762991E-01
  7.64686670732002693E-01  7.40606535990160908E-01  7.16901958744200485E-01
  6.93581365797638738E-01  6.70652695636627882E-01  6.48123388728302108E-01
  6.26000378753565068E-01  6.04290084818145390E-01  5.82998404679184512E-01
  5.62130709018761499E-01  5.41691836790409331E-01  5.21686091659691265E-01
  5.02117239555511352E-01  4.82988507344579321E-01  4.64302582637624972E-01
  4.46061614732191081E-01  4.28267216693204500E-01  4.10920468569024755E-01
  3.94021921736974923E-01  3.77571604368893643E-01  3.61569028003482729E-01
  3.46013195208614177E-01  3.30902608313001390E-01  3.16235279182872753E-01
  3.02008740015559995E-01  2.88220055118154017E-01  2.74865833635748180E-01
  2.61942243190147750E-01  2.49445024386478004E-01  2.37369506141785980E-01
  2.25710621787244659E-01  2.14462925891687556E-01  2.03620611748583147E-01
  1.93177529472699366E-01  1.83127204646011343E-01  1.73462857450990521E-01
  1.64177422227908182E-01  1.55263567391388274E-01  1.46713715640329423E-01
  1.38520064394488662E-01  1.30674606390569437E-01  1.23169150370453090E-01
  1.15995341794404544E-01  1.09144683512535104E-01  1.02608556328612238E-01
  9.63782393914159596E-02  9.04449303502403573E-02  8.47997652128761326E-02
  7.94338378463715911E-02  7.43382190631747403E-02  6.95039752377665243E-02
  6.49221864016776007E-02  6.05839637677858533E-02  5.64804666379907505E-02
  5.26029186517739805E-02  4.89426233366999919E-02  4.54909789259353090E-02
  4.22394924127635282E-02  3.91797928096672687E-02  3.63036435920003273E-02
  3.36029543077459650E-02  3.10697913369587346E-02  2.86963877896269093E-02
  2.64751525347729742E-02  2.43986783576010009E-02  2.24597492454490857E-02
  2.06513468071387700E-02  1.89666558340410678E-02  1.73990690147732760E-02
  1.59421908188631528E-02  1.45898405679849852E-02  1.33360547164322815E-02
  1.21750883653531962E-02  1.11014160379158504E-02  1.01097317449766917E-02
  9.19494837299506505E-03  8.35219642785278715E-03  7.57682216990569323E-03
  6.86438517699874875E-03  6.21065537332617362E-03  5.61160956291041971E-03
  5.06342750710858658E-03  4.56248758607938863E-03  4.10536208475207037E-03
  3.68881214078157398E-03  3.30978239586520980E-03  2.96539538978992821E-03
  2.65294573492858704E-03  2.36989410854586283E-03  2.11386109918601300E-03
  1.88262094216224774E-03  1.67409517777020764E-03  1.48634626431557912E-03
  1.31757117639842540E-03  1.16609501714368125E-03  1.03036467122839858E-03
  9.08942523645416564E-04  8.00500267179134715E-04  7.03812819573405401E-04
  6.17752369364026185E-04  5.41282567357205839E-04  4.73452878784348641E-04
  4.13393109280240799E-04  3.60308116038051286E-04  3.13472713803139395E-04
  2.72226783778096982E-04  2.35970592001784351E-04  2.04160322295193894E-04
  1.76303827431995041E-04  1.51956600580883304E-04  1.30717967064533489E-04
  1.12227495527158119E-04  9.61616252630308346E-05  8.22305048386743270E-05
  7.01750357498175196E-05  5.97641137748680795E-05  5.07920600450313903E-05
  4.30762336437868999E-05  3.64548176882493387E-05  3.07847711801933349E-05
  2.59399392703446653E-05  2.18093148121559249E-05  1.82954441205699576E-05
  1.53129697132938809E-05  1.27873025751788265E-05  1.06534162487457575E-05
  8.85475489540451824E-06  7.34224743466420226E-06  6.07341995846889365E-06
  5.01159881651615091E-06  4.12519704815191811E-06  3.38707716957534016E-06
  2.77398368941652554E-06  2.26603910564211055E-06  1.84629752558206434E-06
  1.50035041602100323E-06  1.21597938579165876E-06  9.82851277446639748E-07
  7.92251183236135600E-07  6.36849353717054865E-07  5.10498299544233699E-07
  4.08056704147043144E-07  3.25237066540530492E-07  2.58474278753772520E-07
  2.04812610774290695E-07  1.61808827212856889E-07  1.27449393989751317E-07
  1.00079950323498794E-07  7.83454214279469684E-08  6.11393310069311105E-08
  4.75610404220389746E-08  3.68797939498309504E-08  2.85045875791035950E-08
  2.19590031303099235E-08  1.68602609572915340E-08  1.29018439930894207E-08
  9.83913431485342030E-09  7.47758161329004934E-09  5.66299183006069623E-09
  4.27358463632193648E-09  3.21352110335642825E-09  2.40764865641484318E-09
  1.79725032146337717E-09  1.33661916262207120E-09  9.90308154347804087E-10
  7.30930760781340488E-10  5.37408752166931573E-10  3.93581778568756857E-10
  2.87108378516044624E-10  2.08600813610519527E-10  1.50946735617402945E-10
  1.08779516232724011E-10  7.80663706561019614E-11  5.57894194421694055E-11
  3.96997631260584493E-11  2.81286672470341556E-11  1.98432231313630914E-11
  1.39364914964936894E-11  9.74426142581082475E-12  6.78225924730973581E-12
  4.69899815768736164E-12  3.24053503111277849E-12  2.22424966597807692E-12
  1.51942826591364628E-12  1.03295376484779173E-12  6.98810510656955486E-13
  4.70423889681167689E-13  3.15096732333812511E-13  2.09988677893169902E-13
  1.39225191450634071E-13  9.18294359564866966E-14  6.02503385000127048E-14
  3.93207894145114811E-14  2.55235694245375114E-14  1.64773654942623186E-14
  1.05786851046193021E-14  6.75372142874724881E-15  4.28737772398972899E-15
  2.70611799125231023E-15  1.69815342789845164E-15  1.05937759463161409E-15
  6.56956093010108171E-16  4.04949855354861909E-16  2.48091976647490733E-16
  1.51055855770174901E-16  9.13991525199173410E-17  5.49531355670733464E-17
  3.28287238494576512E-17  1.94846135459902648E-17  1.14886888621139442E-17
  6.72905705549228564E-18  3.91477520401373285E-18  2.26199519054629224E-18
  1.29799091144997157E-18  7.39620913091693514E-19  4.18471830776213769E-19
  2.35073823534622724E-19  1.31094449496410215E-19  7.25716219617088805E-20
  3.98760240377227293E-20  2.17459735843108632E-20  1.17686548237566273E-20
  6.31995507673964837E-21  3.36742260889631657E-21  1.78006514908559807E-21
  9.33438250988843528E-22  4.85515338338694525E-22  2.50463041412934879E-22
  1.28133521283540716E-22  6.50002113118546886E-23  3.26929067284547114E-23
  1.63016773981825384E-23  8.05756150283558241E-24  3.94747561578063855E-24
  1.91659788410356802E-24  9.22123178770320805E-25  4.39585676780428081E-25
  2.07608180869665377E-25  9.71271773171803186E-26  4.50070805067947600E-26
  2.06543927470365135E-26  9.38604468217125107E-27  4.22316273215074560E-27
  1.88115146746525333E-27  8.29441029030880701E-28  3.61965695403390108E-28
  1.56319491639592799E-28  6.67981475124696125E-29  2.82399693922828993E-29
  1.18101160246659316E-29  4.88511628186951792E-30  1.99832582030008996E-30
  8.08290329564149651E-31  3.23233488888904873E-31  1.27776363804724417E-31
  4.99236496788195542E-32  1.92761025983227232E-32  7.35400148805212419E-33
  2.77174464080740480E-33  1.03190583468579933E-33  3.79416097219020370E-34
  1.37756391713161409E-34  4.93808915646307151E-35  1.74737952612953248E-35
  6.10275348946365147E-36  2.10330824638592104E-36  7.15229977055331998E-37
  2.39926964685446240E-37  7.93834731662166449E-38  2.59014060243817565E-38
  8.33263548860308968E-39  2.64259033845504305E-39  8.26013827697047379E-40
  2.54434127106526122E-40  7.72170927345418052E-41  2.30844698625077039E-41
  6.79691582570569432E-42  1.97063098114926680E-42  5.62489894158866214E-43
  1.58035007652408596E-43  4.36950928957795587E-44  1.18867406617250402E-44
  3.18091316341745931E-45  8.37155020386050734E-46  2.16635143791017896E-46
  5.51090641313182845E-47  1.37781832398986837E-47  3.38484831165540326E-48
  8.16896641257016199E-49  1.93631817739424895E-49  4.50679555249745487E-50
  1.02976718432703487E-50  2.30933815813801802E-51  5.08170232209076623E-52
  1.09697991360185565E-52  2.32246436935194103E-53  4.82116614469141498E-54
  9.81065517138491651E-55  1.95648012437877309E-55  3.82270997902174518E-56
  7.31595300743125372E-57  1.37106272773618269E-57  2.51542672159149806E-58
  4.51661030966667261E-59  7.93480325918508943E-60  1.36350019470107842E-60
  2.29107393765266684E-61  3.76316345566187009E-62  6.04028561936223810E-63
  9.47123958932815850E-64  1.45027514221324685E-64  2.16792311447753759E-65
  3.16261254763182596E-66  4.50104700217811329E-67  6.24742965445656805E-68
  8.45400128822746915E-69  1.11492898175461821E-69  1.43253392287429694E-70
  1.79259542389637339E-71  2.18385658773665311E-72  2.58924493009908188E-73
  2.98655087932687404E-74  3.35006158637227967E-75  3.65306693169322120E-76
  3.87088952780059375E-77  3.97535840013880103E-78  0.00000000000000000E+00
  0.00000000000000000E+00  0.00000000000000000E+00  0.00000000000000000E+00
  0.00000000000000000E+00  0.00000000000000000E+00  0.00000000000000000E+00
   </PP_GIPAW_CORE_ORBITAL.1>
   <PP_GIPAW_CORE_ORBITAL.2 type="real" size="   999" columns="3" index="2" label="2S" n="2" l="0">
 -2.05523690860077339E-03 -2.08088590199290374E-03 -2.10685467034357841E-03
 -2.13314719228922204E-03 -2.15976749544464532E-03 -2.18671965802365786E-03
 -2.21400780911003812E-03 -2.24163612793580125E-03 -2.26960884576819311E-03
 -2.29793024700734351E-03 -2.32660466869886659E-03 -2.35563650103712838E-03
 -2.38503018929008296E-03 -2.41479023403285082E-03 -2.44492119060841107E-03
 -2.47542767119863756E-03 -2.50631434568511719E-03 -2.53758594090022164E-03
 -2.56924724225222455E-03 -2.60130309510798238E-03 -2.63375840415169295E-03
 -2.66661813456679775E-03 -2.69988731374063351E-03 -2.73357103072087567E-03
 -2.76767443723433069E-03 -2.80220274950030617E-03 -2.83716124767957167E-03
 -2.87255527704311214E-03 -2.90839024968899372E-03 -2.94467164390934712E-03
 -2.98140500578689908E-03 -3.01859595053772037E-03 -3.05625016192063613E-03
 -3.09437339437794619E-03 -3.13297147362307177E-03 -3.17205029663040865E-03
 -3.21161583394407018E-03 -3.25167412940132773E-03 -3.29223130134549506E-03
 -3.33329354421404425E-03 -3.37486712811523688E-03 -3.41695840114205653E-03
 -3.45957378946764454E-03 -3.50271979833807930E-03 -3.54640301377476611E-03
 -3.59063010229547855E-03 -3.63540781327274364E-03 -3.68074297882469651E-03
 -3.72664251543466073E-03 -3.77311342495561652E-03 -3.82016279511378969E-03
 -3.86779780150647238E-03 -3.91602570746077665E-03 -3.96485386637620250E-03
 -4.01428972162299388E-03 -4.06434080863646643E-03 -4.11501475527448896E-03
 -4.16631928343540615E-03 -4.21826220994079605E-03 -4.27085144772746186E-03
 -4.32409500714009062E-03 -4.37800099684493380E-03 -4.43257762537735151E-03
 -4.48783320192828582E-03 -4.54377613800829167E-03 -4.60041494823312368E-03
 -4.65775825199088358E-03 -4.71581477433253345E-03 -4.77459334754310599E-03
 -4.83410291223417086E-03 -4.89435251872633818E-03 -4.95535132843204131E-03
 -5.01710861497432076E-03 -5.07963376591334757E-03 -5.14293628358824390E-03
 -5.20702578714137086E-03 -5.27191201321317634E-03 -5.33760481803559773E-03
 -5.40411417830252358E-03 -5.47145019297093620E-03 -5.53962308463499479E-03
 -5.60864320081799501E-03 -5.67852101588257798E-03 -5.74926713202039783E-03
 -5.82089228124993505E-03 -5.89340732671600389E-03 -5.96682326421114299E-03
 -6.04115122405931085E-03 -6.11640247230704152E-03 -6.19258841265320822E-03
 -6.26972058804517018E-03 -6.34781068210585504E-03 -6.42687052113418041E-03
 -6.50691207560885870E-03 -6.58794746183771155E-03 -6.66998894392673795E-03
 -6.75304893533558003E-03 -6.83714000063842618E-03 -6.92227485749528915E-03
 -7.00846637831468739E-03 -7.09572759204481381E-03 -7.18407168618581757E-03
 -7.27351200858824404E-03 -7.36406206923935665E-03 -7.45573554231898378E-03
 -7.54854626813375104E-03 -7.64250825496186423E-03 -7.73763568107457399E-03
 -7.83394289679955474E-03 -7.93144442651146434E-03 -8.03015497059724088E-03
 -8.13008940758827917E-03 -8.23126279627072084E-03 -8.33369037777772527E-03
 -8.43738757766804640E-03 -8.54237000811953334E-03 -8.64865347013157870E-03
 -8.75625395572073029E-03 -8.86518765012605549E-03 -8.97547093403962271E-03
 -9.08712038591518063E-03 -9.20015278426769209E-03 -9.31458510999195501E-03
 -9.43043454870378176E-03 -9.54771849309471628E-03 -9.66645454534383226E-03
 -9.78666051954689940E-03 -9.90835444416165480E-03 -1.00315545644791195E-02
 -1.01562793451211112E-02 -1.02825474725610679E-02 -1.04103778576714254E-02
 -1.05397896383085995E-02 -1.06708021819172643E-02 -1.08034350881601026E-02
 -1.09377081915747586E-02 -1.10736415642579550E-02 -1.12112555185771481E-02
 -1.13505706099097364E-02 -1.14916076394100189E-02 -1.16343876568040169E-02
 -1.17789319632119419E-02 -1.19252621140002613E-02 -1.20733999216616050E-02
 -1.22233674587227913E-02 -1.23751870606817384E-02 -1.25288813289732136E-02
 -1.26844731339638035E-02 -1.28419856179760854E-02 -1.30014421983422352E-02
 -1.31628665704873141E-02 -1.33262827110421627E-02 -1.34917148809862945E-02
 -1.36591876288208215E-02 -1.38287257937715433E-02 -1.40003545090224574E-02
 -1.41740992049796486E-02 -1.43499856125658843E-02 -1.45280397665459322E-02
 -1.47082880088827590E-02 -1.48907569921247779E-02 -1.50754736828233957E-02
 -1.52624653649824586E-02 -1.54517596435394117E-02 -1.56433844478775924E-02
 -1.58373680353701210E-02 -1.60337389949554016E-02 -1.62325262507444015E-02
 -1.64337590656597442E-02 -1.66374670451067339E-02 -1.68436801406763072E-02
 -1.70524286538769367E-02 -1.72637432398989980E-02 -1.74776549114172182E-02
 -1.76941950424223012E-02 -1.79133953720843897E-02 -1.81352880086486541E-02
 -1.83599054333622828E-02 -1.85872805044248572E-02 -1.88174464609823268E-02
 -1.90504369271569697E-02 -1.92862859161038736E-02 -1.95250278340994947E-02
 -1.97666974846515374E-02 -2.00113300726442837E-02 -2.02589612085360485E-02
 -2.05096269125766284E-02 -2.07633636190524343E-02 -2.10202081805434746E-02
 -2.12801978722439826E-02 -2.15433703963158266E-02 -2.18097638862593639E-02
 -2.20794169112894685E-02 -2.23523684807789627E-02 -2.26286580487415970E-02
 -2.29083255183191586E-02 -2.31914112462718869E-02 -2.34779560475620076E-02
 -2.37680011999494151E-02 -2.40615884485697214E-02 -2.43587600105747946E-02
 -2.46595585798385433E-02 -2.49640273316287208E-02 -2.52722099273067907E-02
 -2.55841505191304712E-02 -2.58998937550107104E-02 -2.62194847832828599E-02
 -2.65429692575965895E-02 -2.68703933417412527E-02 -2.72018037145018987E-02
 -2.75372475746275200E-02 -2.78767726457045985E-02 -2.82204271811195527E-02
 -2.85682599690780525E-02 -2.89203203375254549E-02 -2.92766581592311254E-02
 -2.96373238568038294E-02 -3.00023684077183016E-02 -3.03718433494636793E-02
 -3.07458007845505740E-02 -3.11242933856970862E-02 -3.15073744009170612E-02
 -3.18950976586591384E-02 -3.22875175730092112E-02 -3.26846891487841407E-02
 -3.30866679868093636E-02 -3.34935102890139766E-02 -3.39052728637254108E-02
 -3.43220131308069262E-02 -3.47437891269329543E-02 -3.51706595107803138E-02
 -3.56026835682753257E-02 -3.60399212178286951E-02 -3.64824330155586810E-02
 -3.69302801605517067E-02 -3.73835245000686892E-02 -3.78422285348121029E-02
 -3.83064554241215743E-02 -3.87762689912289765E-02 -3.92517337284483264E-02
 -3.97329148023994952E-02 -4.02198780591977098E-02 -4.07126900296256797E-02
 -4.12114179343268591E-02 -4.17161296889080463E-02 -4.22268939091340403E-02
 -4.27437799159521153E-02 -4.32668577406698646E-02 -4.37961981299137340E-02
 -4.43318725507458877E-02 -4.48739531955929458E-02 -4.54225129872420086E-02
 -4.59776255837719000E-02 -4.65393653833922546E-02 -4.71078075293633741E-02
 -4.76830279147051478E-02 -4.82651031870206804E-02 -4.88541107531572372E-02
 -4.94501287838354855E-02 -5.00532362182916704E-02 -5.06635127687203313E-02
 -5.12810389247983014E-02 -5.19058959580527418E-02 -5.25381659261433820E-02
 -5.31779316771697763E-02 -5.38252768537682003E-02 -5.44802858972069370E-02
 -5.51430440514065895E-02 -5.58136373667671992E-02 -5.64921527040128588E-02
 -5.71786777378908428E-02 -5.78733009607035886E-02 -5.85761116858387748E-02
 -5.92872000511212235E-02 -6.00066570220030154E-02 -6.07345743947256128E-02
 -6.14710447992909484E-02 -6.22161617022552044E-02 -6.29700194094709453E-02
 -6.37327130686354271E-02 -6.45043386716345341E-02 -6.52849930568056708E-02
 -6.60747739110131571E-02 -6.68737797714944043E-02 -6.76821100275732668E-02
 -6.84998649222049449E-02 -6.93271455532771669E-02 -7.01640538747030779E-02
 -7.10106926973656655E-02 -7.18671656898099281E-02 -7.27335773786748213E-02
 -7.36100331489345228E-02 -7.44966392439099095E-02 -7.53935027649995093E-02
 -7.63007316711303146E-02 -7.72184347779940883E-02 -7.81467217569930678E-02
 -7.90857031338787209E-02 -8.00354902870811791E-02 -8.09961954457813355E-02
 -8.19679316876482239E-02 -8.29508129362380858E-02 -8.39449539580401777E-02
 -8.49504703592179611E-02 -8.59674785819794923E-02 -8.69960959005674495E-02
 -8.80364404168512832E-02 -8.90886310555508570E-02 -9.01527875590623085E-02
 -9.12290304818516029E-02 -9.23174811844106047E-02 -9.34182618267609954E-02
 -9.45314953615330050E-02 -9.56573055265595301E-02 -9.67958168369810606E-02
 -9.79471545768428459E-02 -9.91114447901779161E-02 -1.00288814271584467E-01
 -1.01479390556245622E-01 -1.02683301909387195E-01 -1.03900677315154358E-01
 -1.05131646464889802E-01 -1.06376339744825299E-01 -1.07634888223137645E-01
 -1.08907423636357664E-01 -1.10194078375115967E-01 -1.11494985469201599E-01
 -1.12810278571928310E-01 -1.14140091943793445E-01 -1.15484560435390460E-01
 -1.16843819469562335E-01 -1.18218005022778697E-01 -1.19607253605706759E-01
 -1.21011702242967950E-01 -1.22431488452062823E-01 -1.23866750221424335E-01
 -1.25317625987585141E-01 -1.26784254611435721E-01 -1.28266775353548579E-01
 -1.29765327848540779E-01 -1.31280052078467213E-01 -1.32811088345206579E-01
 -1.34358577241813493E-01 -1.35922659622812803E-01 -1.37503476573411776E-01
 -1.39101169377600559E-01 -1.40715879485112050E-01 -1.42347748477221286E-01
 -1.43996918031353865E-01 -1.45663529884469761E-01 -1.47347725795192341E-01
 -1.49049647504657212E-01 -1.50769436696047282E-01 -1.52507234952784426E-01
 -1.54263183715344226E-01 -1.56037424236662586E-01 -1.57830097536109493E-01
 -1.59641344351984765E-01 -1.61471305092506484E-01 -1.63320119785258178E-01
 -1.65187928025058717E-01 -1.67074868920221081E-01 -1.68981081037162306E-01
 -1.70906702343328387E-01 -1.72851870148395453E-01 -1.74816721043715401E-01
 -1.76801390839963213E-01 -1.78806014502946059E-01 -1.80830726087535060E-01
 -1.82875658669682001E-01 -1.84940944276477337E-01 -1.87026713814210821E-01
 -1.89133096994393068E-01 -1.91260222257692292E-01 -1.93408216695749036E-01
 -1.95577205970817791E-01 -1.97767314233201374E-01 -1.99978664036428055E-01
 -2.02211376250125058E-01 -2.04465569970546240E-01 -2.06741362428705833E-01
 -2.09038868896072677E-01 -2.11358202587778987E-01 -2.13699474563293523E-01
 -2.16062793624514943E-01 -2.18448266211234060E-01 -2.20855996293917611E-01
 -2.23286085263764728E-01 -2.25738631819985158E-01 -2.28213731854250590E-01
 -2.30711478332269071E-01 -2.33231961172432584E-01 -2.35775267121484555E-01
 -2.38341479627158070E-01 -2.40930678707732354E-01 -2.43542940818456705E-01
 -2.46178338714789890E-01 -2.48836941312403526E-01 -2.51518813543895547E-01
 -2.54224016212164783E-01 -2.56952605840391202E-01 -2.59704634518571564E-01
 -2.62480149746558533E-01 -2.65279194273548680E-01 -2.68101805933971260E-01
 -2.70948017479721970E-01 -2.73817856408692939E-01 -2.76711344789546509E-01
 -2.79628499082680670E-01 -2.82569329957338689E-01 -2.85533842104810254E-01
 -2.88522034047673903E-01 -2.91533897945034648E-01 -2.94569419393704679E-01
 -2.97628577225282076E-01 -3.00711343299080058E-01 -3.03817682290859148E-01
 -3.06947551477319280E-01 -3.10100900516306788E-01 -3.13277671222692844E-01
 -3.16477797339882572E-01 -3.19701204306913400E-01 -3.22947809021104593E-01
 -3.26217519596219918E-01 -3.29510235116107331E-01 -3.32825845383782848E-01
 -3.36164230665923380E-01 -3.39525261432742032E-01 -3.42908798093214673E-01
 -3.46314690725633367E-01 -3.49742778803461329E-01 -3.53192890916470714E-01
 -3.56664844487141364E-01 -3.60158445482308687E-01 -3.63673488120044019E-01
 -3.67209754571760416E-01 -3.70767014659534822E-01 -3.74345025548647181E-01
 -3.77943531435332880E-01 -3.81562263229754617E-01 -3.85200938234203150E-01
 -3.88859259816536074E-01 -3.92536917078874392E-01 -3.96233584521575755E-01
 -3.99948921702511118E-01 -4.03682572891675084E-01 -4.07434166721167612E-01
 -4.11203315830585059E-01 -4.14989616507870418E-01 -4.18792648325673922E-01
 -4.22611973773283633E-01 -4.26447137884190086E-01 -4.30297667859356248E-01
 -4.34163072686274576E-01 -4.38042842753891937E-01 -4.41936449463497638E-01
 -4.45843344835676780E-01 -4.49762961113432280E-01 -4.53694710361597753E-01
 -4.57637984062663650E-01 -4.61592152709148829E-01 -4.65556565392663824E-01
 -4.69530549389814700E-01 -4.73513409745113634E-01 -4.77504428851064089E-01
 -4.81502866025604270E-01 -4.85507957087103315E-01 -4.89518913927112609E-01
 -4.93534924081087623E-01 -4.97555150297309345E-01 -5.01578730104240145E-01
 -5.05604775376571558E-01 -5.09632371900223369E-01 -5.13660578936572132E-01
 -5.17688428786203803E-01 -5.21714926352488617E-01 -5.25739048705303524E-01
 -5.29759744645233455E-01 -5.33775934268596375E-01 -5.37786508533664165E-01
 -5.41790328828447243E-01 -5.45786226540453168E-01 -5.49773002628816121E-01
 -5.53749427199238475E-01 -5.57714239082184760E-01 -5.61666145414791429E-01
 -5.65603821226979719E-01 -5.69525909032263189E-01 -5.73431018423777972E-01
 -5.77317725676067428E-01 -5.81184573353181633E-01 -5.85030069923667906E-01
 -5.88852689383050909E-01 -5.92650870884419478E-01 -5.96423018377757796E-01
 -6.00167500258684816E-01 -6.03882649027276619E-01 -6.07566760957683361E-01
 -6.11218095779257564E-01 -6.14834876369947714E-01 -6.18415288462721646E-01
 -6.21957480365818216E-01 -6.25459562697639693E-01 -6.28919608137122332E-01
 -6.32335651190452319E-01 -6.35705687975008815E-01 -6.39027676021447721E-01
 -6.42299534094854518E-01 -6.45519142035930305E-01 -6.48684340623185807E-01
 -6.51792931457153779E-01 -6.54842676867648077E-01 -6.57831299845117679E-01
 -6.60756483997184119E-01 -6.63615873531448353E-01 -6.66407073265705474E-01
 -6.69127648666706154E-01 -6.71775125918638194E-01 -6.74346992022524572E-01
 -6.76840694927750230E-01 -6.79253643696958509E-01 -6.81583208705575871E-01
 -6.83826721877247690E-01 -6.85981476956484815E-01 -6.88044729819843104E-01
 -6.90013698826978716E-01 -6.91885565212933318E-01 -6.93657473523032642E-01
 -6.95326532091785299E-01 -6.96889813567197147E-01 -6.98344355481918422E-01
 -6.99687160872667135E-01 -7.00915198949372820E-01 -7.02025405815502879E-01
 -7.03014685241042048E-01 -7.03879909489600553E-01 -7.04617920201134229E-01
 -7.05225529331764966E-01 -7.05699520152193172E-01 -7.06036648306190950E-01
 -7.06233642930665484E-01 -7.06287207838781184E-01 -7.06194022767616225E-01
 -7.05950744691828946E-01 -7.05554009204787613E-01 -7.05000431968601293E-01
 -7.04286610234513111E-01 -7.03409124435046551E-01 -7.02364539849284042E-01
 -7.01149408342646940E-01 -6.99760270182501087E-01 -6.98193655930894108E-01
 -6.96446088415677789E-01 -6.94514084781240104E-01 -6.92394158620015854E-01
 -6.90082822185909217E-01 -6.87576588690692270E-01 -6.84871974684396756E-01
 -6.81965502520653466E-01 -6.78853702907852963E-01 -6.75533117546951334E-01
 -6.72000301856643945E-01 -6.68251827786562447E-01 -6.64284286719055816E-01
 -6.60094292460025378E-01 -6.55678484319181298E-01 -6.51033530279982120E-01
 -6.46156130259417427E-01 -6.41043019457660623E-01 -6.35690971797508886E-01
 -6.30096803453398469E-01 -6.24257376469634306E-01 -6.18169602467351531E-01
 -6.11830446439558862E-01 -6.05236930633482828E-01 -5.98386138519243382E-01
 -5.91275218843756556E-01 -5.83901389768560430E-01 -5.76261943090100814E-01
 -5.68354248540820839E-01 -5.60175758169205062E-01 -5.51724010796677322E-01
 -5.42996636549207268E-01 -5.33991361461251812E-01 -5.24706012149185774E-01
 -5.15138520551404966E-01 -5.05286928732015750E-01 -4.95149393744749200E-01
 -4.84724192553562305E-01 -4.74009727006082404E-01 -4.63004528855868680E-01
 -4.51707264829160959E-01 -4.40116741731561900E-01 -4.28231911589821324E-01
 -4.16051876823610889E-01 -4.03575895441933119E-01 -3.90803386258467167E-01
 -3.77733934119923842E-01 -3.64367295141111158E-01 -3.50703401940150705E-01
 -3.36742368866922714E-01 -3.22484497217482957E-01 -3.07930280426859881E-01
 -2.93080409232221728E-01 -2.77935776798084955E-01 -2.62497483794755293E-01
 -2.46766843420833798E-01 -2.30745386360154459E-01 -2.14434865663063468E-01
 -1.97837261541521037E-01 -1.80954786066990614E-01 -1.63789887759673874E-01
 -1.46345256057035689E-01 -1.28623825649179291E-01 -1.10628780669004487E-01
 -9.23635587234037381E-02 -7.38318547522143903E-02 -5.50376247014923783E-02
 -3.59850889976572261E-02 -1.66787358091347038E-02  2.87667591738592241E-03
  2.26761136584390510E-02  4.27142687643894958E-02  6.29855541693621207E-02
  8.34841023692069750E-02  1.04203763674309141E-01  1.25138104742062439E-01
  1.46280407391375572E-01  1.67623667699187046E-01  1.89160595376411639E-01
  2.10883613418350879E-01  2.32784858022486357E-01  2.54856178764933772E-01
  2.77089139025886000E-01  2.99475016654211279E-01  3.22004804862363769E-01
  3.44669213344762138E-01  3.67458669616072431E-01  3.90363320570330852E-01
  4.13373034267381312E-01  4.36477401959704137E-01  4.59665740380046262E-01
  4.82927094318259142E-01  5.06250239521612411E-01  5.29623685963008572E-01
  5.53035681527002665E-01  5.76474216168566422E-01  5.99927026603447211E-01
  6.23381601590271228E-01  6.46825187863346085E-01  6.70244796770852247E-01
  6.93627211665902799E-01  7.16958996087748601E-01  7.40226502757808436E-01
  7.63415883400877848E-01  7.86513099386748626E-01  8.09503933172991630E-01
  8.32374000516531098E-01  8.55108763411365103E-01  8.77693543702681156E-01
  9.00113537324197743E-01  9.22353829105657774E-01  9.44399408100414783E-01
  9.66235183388464036E-01  9.87846000316748185E-01  1.00921665714572106E+00
  1.03033192207763324E+00  1.05117655064762561E+00  1.07173530346287871E+00
  1.09199296427780368E+00  1.11193435839399934E+00  1.13154437137175679E+00
  1.15080796804144447E+00  1.16971021179833823E+00  1.18823628416160676E+00
  1.20637150457477471E+00  1.22410135042137624E+00  1.24141147722614242E+00
  1.25828773900875990E+00  1.27471620875449543E+00  1.29068319896349193E+00
  1.30617528223862323E+00  1.32117931187025106E+00  1.33568244237507372E+00
  1.34967214994561635E+00  1.36313625276637573E+00  1.37606293115265244E+00
  1.38844074746810420E+00  1.40025866577744651E+00  1.41150607119115756E+00
  1.42217278885958898E+00  1.43224910257463511E+00  1.44172577293781923E+00
  1.45059405505448424E+00  1.45884571571463550E+00  1.46647305002186568E+00
  1.47346889743268172E+00  1.47982665716946160E+00  1.48554030297197803E+00
  1.49060439715260418E+00  1.49501410392172529E+00  1.49876520195101715E+00
  1.50185409614341436E+00  1.50427782857975934E+00  1.50603408861336807E+00
  1.50712122208497701E+00  1.50753823963182265E+00  1.50728482406587516E+00
  1.50636133679756790E+00  1.50476882328264305E+00  1.50250901747105803E+00
  1.49958434523818429E+00  1.49599792677979671E+00  1.49175357795362973E+00
  1.48685581055148131E+00  1.48130983148705697E+00  1.47512154088588465E+00
  1.46829752906475153E+00  1.46084507238916439E+00  1.45277212799835564E+00
  1.44408732738833145E+00  1.43479996884435557E+00  1.42492000871491920E+00
  1.41445805151889781E+00  1.40342533888448195E+00  1.39183373731198268E+00
  1.37969572475523816E+00  1.36702437601930082E+00  1.35383334697216196E+00
  1.34013685756955803E+00  1.32594967369327987E+00  1.31128708780516612E+00
  1.29616489842102833E+00  1.28059938841124343E+00  1.26460730213788319E+00
  1.24820582144185588E+00  1.23141254049805782E+00  1.21424543956178654E+00
  1.19672285763590125E+00  1.17886346409552512E+00  1.16068622931542431E+00
  1.14221039435477145E+00  1.12345543976461504E+00  1.10444105359527467E+00
  1.08518709869366869E+00  1.06571357939427513E+00  1.04604060772197482E+00
  1.02618836923963119E+00  1.00617708868882016E+00  9.86026995583798027E-01
  9.65758289943245418E-01  9.45391108345631559E-01  9.24945490509071933E-01
  9.04441346609331176E-01  8.83898425555546652E-01  8.63336284447266289E-01
  8.42774259436026352E-01  8.22231438208509302E-01  8.01726634293666529E-01
  7.81278363370142004E-01  7.60904821707792056E-01  7.40623866812224696E-01
  7.20453000246144559E-01  7.00409352467244228E-01  6.80509669341327950E-01
  6.60770299755414792E-01  6.41207183470767994E-01  6.21835838033816257E-01
  6.02671343237580093E-01  5.83728321356678959E-01  5.65020911252565372E-01
  5.46562734572717202E-01  5.28366852761984140E-01  5.10445714550477603E-01
  4.92811094986870979E-01  4.75474028835405682E-01  4.58444742990639920E-01
  4.41732594079784491E-01  4.25346018201238685E-01  4.09292499394090015E-01
  3.93578561771863455E-01  3.78209787408746556E-01  3.63190858503225633E-01
  3.48525618808950000E-01  3.34217146662723008E-01  3.20267830831696854E-01
  3.06679441090370153E-01  2.93453187622383149E-01  2.80589766297297927E-01
  2.68089389752808993E-01  2.55951806368717893E-01  2.44176310372410166E-01
  2.32761746541135739E-01  2.21706512547592549E-01  2.11008561261167682E-01
  2.00665404530834729E-01  1.90674119295620975E-01  1.81031356357959777E-01
  1.71733351814875396E-01  1.62775940941302572E-01  1.54154574221049667E-01
  1.45864335184028027E-01  1.37899959714504555E-01  1.30255856523320696E-01
  1.22926128508217061E-01  1.15904594763597893E-01  1.09184813035853104E-01
  1.02760102451640481E-01  9.66235663734815731E-02  9.07681152596103435E-02
  8.51864894232774728E-02  7.98712816011771659E-02  7.48149592517544926E-02
  7.00098865124991199E-02  6.54483457514920403E-02  6.11225586529794904E-02
  5.70247067801781179E-02  5.31469515612390045E-02  4.94814536466875871E-02
  4.60203915890282089E-02  4.27559797977014946E-02  3.96804857254023854E-02
  3.67862462449215916E-02  3.40656831792529799E-02  3.15113179516590125E-02
  2.91157853273666702E-02  2.68718462227597668E-02  2.47723995582182048E-02
  2.28104931449542789E-02  2.09793335956726563E-02  1.92722952544132214E-02
  1.76829281465856469E-02  1.62049649552712012E-02  1.48323270347778171E-02
  1.35591294771573150E-02  1.23796852518834790E-02  1.12885084430938646E-02
  1.02803166127128434E-02  9.35003232134143207E-03  8.49278384203276671E-03
  7.70390510493233066E-03  6.97893491324617574E-03  6.31361547311448147E-03
  5.70389028168715329E-03  5.14590141905561446E-03  4.63598629065633920E-03
  4.17067386739692573E-03  3.74668047099616097E-03  3.36090515196096505E-03
  3.01042470725076646E-03  2.69248838405486326E-03  2.40451231559626367E-03
  2.14407373122459111E-03  1.90890498481988352E-03  1.69688744302785529E-03
  1.50604527199550264E-03  1.33453915979017614E-03  1.18066000955647870E-03
  1.04282263622252291E-03  9.19559497243729721E-04  8.09514485486588324E-04
  7.11436809934749338E-04  6.24174987469728617E-04  5.46670966548306746E-04
  4.77954401199939317E-04  4.17137091411606082E-04  3.63407603671582122E-04
  3.16026083224166504E-04  2.74319267455222005E-04  2.37675707796607583E-04
  2.05541205614612741E-04  1.77414465741229687E-04  1.52842969624217219E-04
  1.31419068515893314E-04  1.12776295695194369E-04  9.65858954265593270E-05
  8.25535652650030255E-05  7.04164070293057930E-05  5.99400810792064307E-05
  5.09161579058813485E-05  4.31596600882008666E-05  3.65067872255840967E-05
  3.08128160287278826E-05  2.59501674169855420E-05  2.18066322349622569E-05
  1.82837470539332282E-05  1.52953114587404599E-05  1.27660382304375461E-05
  1.06303279117180644E-05  8.83115937857754779E-06  7.31908823043052378E-06
  6.05134504482398466E-06  4.99102581501787525E-06  4.10636719237863196E-06
  3.37009948440860908E-06  2.75887070738461702E-06  2.25273535443967508E-06
  1.83470191040223237E-06  1.49033351916768022E-06  1.20739658364271618E-06
  9.75552448700617489E-07  7.86087682739361906E-07  6.31678821216530169E-07
  5.06187777525890614E-07  4.04484466493518698E-07  3.22293482817231510E-07
  2.56061975888160628E-07  2.02846140583352934E-07  1.60214003264567848E-07
  1.26162423815925121E-07  9.90464581670815033E-08  7.75194316588110653E-08
  6.04822622685866659E-08  4.70407447281918312E-08  3.64696626538064875E-08
  2.81827367816109317E-08  2.17075441359254799E-08  1.66646563715809961E-08
  1.27503465714926244E-08  9.72230339388647360E-09  7.38787059263936871E-09
  5.59439949917882253E-09  4.22136294461972458E-09  3.17393216663005540E-09
  2.37776429202597765E-09  1.77478776899936356E-09  1.31980735324166209E-09
  9.77779546806118725E-10  7.21634362658992038E-10  5.30540617779154039E-10
  3.88529797451913229E-10  2.83408662498657635E-10  2.05903435038046308E-10
  1.48988956660261212E-10  1.07364982221170077E-10  7.70490232968623455E-11
  5.50611235654563601E-11  3.91808385481759844E-11  2.77606806224289457E-11
  1.95835282531786948E-11  1.37541149353947610E-11  9.61681775749891866E-12
  6.69365000640335079E-12  4.63770418445161681E-12  3.19835570821105001E-12
  2.19537691849538218E-12  1.49976999069051355E-12  1.01964210457268602E-12
  6.89846353740322461E-13  4.64421311577366263E-13  3.11100256949400447E-13
  2.07343311135765530E-13  1.37484510693370006E-13  9.06909438080929589E-14
  5.95102846183376045E-14  3.88427346355184890E-14  2.52167274887304383E-14
  1.62816980280167530E-14  1.04547396540114153E-14  6.67574043786908929E-15
  4.23865542354135770E-15  2.67589214265763708E-15  1.67953824614293106E-15
  1.04799829769468829E-15  6.50053084593091463E-16  4.00795105947146899E-16
  2.45611498733234721E-16  1.49587263714197751E-16  9.05371229483507973E-17
  5.44516428293931504E-17  3.25396702235069483E-17  1.93196101142208050E-17
  1.13954465998937783E-17  6.67692336946094481E-18  3.88595060481411910E-18
  2.24624597903827547E-18  1.28949401918459050E-18  7.35098889054603685E-19
  4.16100858897220773E-19  2.33851083042026154E-19  1.30475543688568210E-19
  7.22650548142556894E-20  3.97280350015501883E-20  2.16767859815403351E-20
  1.17376394482486374E-20  6.30685815487752417E-21  3.36239679044296151E-21
  1.77847091940627871E-21  9.33175502453551609E-22  4.85685311512945162E-22
  2.50713346955711773E-22  1.28347076313403818E-22  6.51531111920988638E-23
  3.27928385837888456E-23  1.63633022179897256E-23  8.09401072183534101E-24
  3.96834703650789482E-24  1.92823548935974072E-24  9.28465778938728938E-25
   </PP_GIPAW_CORE_ORBITAL.2>
   <PP_GIPAW_CORE_ORBITAL.3 type="real" size="   999" columns="3" index="3" label="2P" n="2" l="1">
  8.84276376047905335E-07  9.03815153286210894E-07  9.23788303865661082E-07
  9.44205569612228614E-07  9.65076917436073628E-07  9.86412531584439630E-07
  1.00822282323797923E-06  1.03051845318376236E-06  1.05331032087252472E-06
  1.07660956394832057E-06  1.10042757900347143E-06  1.12477602933137897E-06
  1.14966683392530181E-06  1.17511217952394367E-06  1.20112454350039150E-06
  1.22771668112873690E-06  1.25490162982876004E-06  1.28269273628213601E-06
  1.31110365028578610E-06  1.34014832234946445E-06  1.36984103065665379E-06
  1.40019638187374207E-06  1.43122930470546002E-06  1.46295507683578509E-06
  1.49538932893051159E-06  1.52854803717455796E-06  1.56244755178743812E-06
  1.59710459964278279E-06  1.63253627893862911E-06  1.66876009051714483E-06
  1.70579393473650537E-06  1.74365611280669699E-06  1.78236535905569823E-06
  1.82194082997765926E-06  1.86240211875529886E-06  1.90376927974702645E-06
  1.94606281558771952E-06  1.98930370733286463E-06  2.03351342014933029E-06
  2.07871390336037168E-06  2.12492762474788522E-06  2.17217755880707400E-06
  2.22048721358397061E-06  2.26988064230070426E-06  2.32038244336337353E-06
  2.37201779543859893E-06  2.42481244653345722E-06  2.47879274757568884E-06
  2.53398565536166143E-06  2.59041874742667139E-06  2.64812024631357421E-06
  2.70711901728695331E-06  2.76744460594550125E-06  2.82912723034761516E-06
  2.89219781953178957E-06  2.95668801115482304E-06  3.02263018294188548E-06
  3.09005746044801110E-06  3.15900373993842808E-06  3.22950370564839139E-06
  3.30159284610969708E-06  3.37530747831386035E-06  3.45068476040035609E-06
  3.52776271992784444E-06  3.60658026564439577E-06  3.68717721744720616E-06
  3.76959431956259771E-06  3.85387327009716514E-06  3.94005673775086067E-06
  4.02818838896934413E-06  4.11831291025541649E-06  4.21047603105228284E-06
  4.30472455340566025E-06  4.40110636940179835E-06  4.49967049865510186E-06
  4.60046710124155371E-06  4.70354752039154728E-06  4.80896429587208967E-06
  4.91677120497703326E-06  5.02702328435950331E-06  5.13977686211732130E-06
  5.25508959307265736E-06  5.37302048117900784E-06  5.49362992384617705E-06
  5.61697973473704332E-06  5.74313318345474139E-06  5.87215503162579081E-06
  6.00411156174371668E-06  6.13907062335377354E-06  6.27710166349908050E-06
  6.41827576611303019E-06  6.56266569692511408E-06  6.71034593620402877E-06
  6.86139272461453038E-06  7.01588410723454605E-06  7.17389997131722151E-06
  7.33552209550644662E-06  7.50083419577297844E-06  7.66992196774574707E-06
  7.84287313819049991E-06  8.01977751510832591E-06  8.20072703402900126E-06
  8.38581581129754838E-06  8.57514019953175976E-06  8.76879883814793518E-06
  8.96689270873018548E-06  9.16952519460613229E-06  9.37680213792211413E-06
  9.58883189758120730E-06  9.80572541105633272E-06  1.00275962589666756E-05
  1.02545607274729768E-05  1.04867378733598852E-05  1.07242495917938348E-05
  1.09672206867239714E-05  1.12157789405791678E-05  1.14700551860599000E-05
  1.17301833805106272E-05  1.19963006825010195E-05  1.22685475302652998E-05
  1.25470677206064175E-05  1.28320084906547059E-05  1.31235206017906564E-05
  1.34217584256972456E-05  1.37268800328467545E-05  1.40390472822876303E-05
  1.43584259138659793E-05  1.46851856429838625E-05  1.50195002576869559E-05
  1.53615477181408793E-05  1.57115102586380386E-05  1.60695744921187918E-05
  1.64359315169556946E-05  1.68107770265860726E-05  1.71943114218903592E-05
  1.75867399263442459E-05  1.79882727040139975E-05  1.83991249804669152E-05
  1.88195171666696547E-05  1.92496749859491850E-05  1.96898296040963408E-05
  2.01402177626961609E-05  2.06010819157210645E-05  2.10726703695184725E-05
  2.15552374262746004E-05  2.20490435310272785E-05  2.25543554223154849E-05
  2.30714462865566500E-05  2.36005959162434964E-05  2.41420908720553879E-05
  2.46962246489814465E-05  2.52632978465540697E-05  2.58436183432954539E-05
  2.64375014754808421E-05  2.70452702203250887E-05  2.76672553837026577E-05
  2.83037957925119890E-05  2.89552384918001236E-05  2.96219389467641030E-05
  3.03042612497503383E-05  3.10025783323765960E-05  3.17172721829207753E-05
  3.24487340690722770E-05  3.31973647661806538E-05  3.39635747911587476E-05
  3.47477846421708283E-05  3.55504250442475843E-05  3.63719372009748681E-05
  3.72127730524043733E-05  3.80733955393408702E-05  3.89542788741636164E-05
  3.98559088184315864E-05  4.07787829673423975E-05  4.17234110410314934E-05
  4.26903151831659497E-05  4.36800302669270281E-05  4.46931042085502300E-05
  4.57300982886375143E-05  4.67915874816723993E-05  4.78781607933171762E-05
  4.89904216059293846E-05  5.01289880327759749E-05  5.12944932809996591E-05
  5.24875860238643507E-05  5.37089307820733252E-05  5.49592083138833348E-05
  5.62391160152045722E-05  5.75493683296982039E-05  5.88906971695783748E-05
  6.02638523458025826E-05  6.16696020088345964E-05  6.31087331006897250E-05
  6.45820518189002036E-05  6.60903840907861530E-05  6.76345760591514944E-05
  6.92154945807481217E-05  7.08340277378000191E-05  7.24910853602134665E-05
  7.41875995611802034E-05  7.59245252873729659E-05  7.77028408816494358E-05
  7.95235486585086986E-05  8.13876754955823874E-05  8.32962734396326139E-05
  8.52504203252113892E-05  8.72512204107064323E-05  8.92998050303519506E-05
  9.13973332595200972E-05  9.35449925990329128E-05  9.57439996760849619E-05
  9.79956009598002603E-05  1.00301073497841155E-04  1.02661725669143657E-04
  1.05078897954134551E-04  1.07553963727356644E-04  1.10088330065358651E-04
  1.12683438577001449E-04  1.15340766254337992E-04  1.18061826341371096E-04
  1.20848169228673723E-04  1.23701383365258606E-04  1.26623096196036837E-04
  1.29614975121186986E-04  1.32678728477600812E-04  1.35816106547780041E-04
  1.39028902588536163E-04  1.42318953890285311E-04  1.45688142856880857E-04
  1.49138398116463997E-04  1.52671695655783577E-04  1.56290059984708697E-04
  1.59995565327719684E-04  1.63790336844887434E-04  1.67676551882987645E-04
  1.71656441256072924E-04  1.75732290558702889E-04  1.79906441509384386E-04
  1.84181293328559525E-04  1.88559304148308300E-04  1.93042992457890297E-04
  1.97634938583236087E-04  2.02337786202993683E-04  2.07154243901474161E-04
  2.12087086758334584E-04  2.17139157978732942E-04  2.22313370560078279E-04
  2.27612709003058251E-04  2.33040231059466026E-04  2.38599069527363830E-04
  2.44292434084829996E-04  2.50123613172095337E-04  2.56095975916563023E-04
  2.62212974105072378E-04  2.68478144205096540E-04  2.74895109431627432E-04
  2.81467581868075241E-04  2.88199364634194959E-04  2.95094354109048484E-04
  3.02156542206894385E-04  3.09390018706110761E-04  3.16798973637528265E-04
  3.24387699726567036E-04  3.32160594896200353E-04  3.40122164830313942E-04
  3.48277025596115694E-04  3.56629906332588749E-04  3.65185652001342260E-04
  3.73949226203038932E-04  3.82925714063615363E-04  3.92120325186781020E-04
  4.01538396678126277E-04  4.11185396242892448E-04  4.21066925355055273E-04
  4.31188722503486231E-04  4.41556666516387721E-04  4.52176779962582247E-04
  4.63055232635147126E-04  4.74198345118764894E-04  4.85612592439713185E-04
  4.97304607803573267E-04  5.09281186422698125E-04  5.21549289432563911E-04
  5.34116047901349940E-04  5.46988766935639767E-04  5.60174929882096542E-04
  5.73682202627968062E-04  5.87518438004222174E-04  6.01691680292624435E-04
  6.16210169837652253E-04  6.31082347767781627E-04  6.46316860828578745E-04
  6.61922566328415922E-04  6.77908537200023033E-04  6.94284067181451356E-04
  7.11058676118892625E-04  7.28242115392432735E-04  7.45844373469013158E-04
  7.63875681585556889E-04  7.82346519565025504E-04  8.01267621766985809E-04
  8.20649983177152440E-04  8.40504865638891461E-04  8.60843804229851034E-04
  8.81678613785661291E-04  9.03021395575143225E-04  9.24884544130320178E-04
  9.47280754234779447E-04  9.70223028072912902E-04  9.93724682543931830E-04
  1.01779935674476698E-03  1.04246101962533516E-03  1.06772397781996933E-03
  1.09360288365790352E-03  1.12011274335771819E-03  1.14726892540951433E-03
  1.17508716914891537E-03  1.20358359352689174E-03  1.23277470607896923E-03
  1.26267741209897650E-03  1.29330902402143835E-03  1.32468727101704253E-03
  1.35683030880583014E-03  1.38975672969192431E-03  1.42348557282524833E-03
  1.45803633469489616E-03  1.49342897985888434E-03  1.52968395191545596E-03
  1.56682218472055401E-03  1.60486511385647375E-03  1.64383468835743404E-03
  1.68375338269706595E-03  1.72464420904327293E-03  1.76653072978604376E-03
  1.80943707034349481E-03  1.85338793225170591E-03  1.89840860654448833E-03
  1.94452498742882490E-03  1.99176358626185386E-03  2.04015154583547407E-03
  2.08971665497487786E-03  2.14048736345670565E-03  2.19249279725352133E-03
  2.24576277411112730E-03  2.30032781946508955E-03  2.35621918270319209E-03
  2.41346885378042201E-03  2.47210958019355651E-03  2.53217488432194151E-03
  2.59369908114143351E-03  2.65671729631901995E-03  2.72126548469506929E-03
  2.78738044916063349E-03  2.85509985993715560E-03  2.92446227426609168E-03
  2.99550715651621807E-03  3.06827489871610258E-03  3.14280684151945714E-03
  3.21914529561154747E-03  3.29733356356454134E-03  3.37741596214991436E-03
  3.45943784511599985E-03  3.54344562643903530E-03  3.62948680405603260E-03
  3.71760998408787215E-03  3.80786490556136222E-03  3.90030246563837814E-03
  3.99497474536116177E-03  4.09193503592254499E-03  4.19123786546977614E-03
  4.29293902645102969E-03  4.39709560351344599E-03  4.50376600196179897E-03
  4.61300997678698848E-03  4.72488866227332559E-03  4.83946460219410093E-03
  4.95680178060456736E-03  5.07696565324157554E-03  5.20002317953929989E-03
  5.32604285527048596E-03  5.45509474582271409E-03  5.58725052011899061E-03
  5.72258348519225253E-03  5.86116862142324006E-03  6.00308261845115820E-03
  6.14840391176675171E-03  6.29721271999715733E-03  6.44959108289204757E-03
  6.60562290002052275E-03  6.76539397018809194E-03  6.92899203158329081E-03
  7.09650680266286395E-03  7.26803002378504596E-03  7.44365549960009001E-03
  7.62347914220706108E-03  7.80759901508591616E-03  7.99611537781370028E-03
  8.18913073157368290E-03  8.38674986546601373E-03  8.58907990362828624E-03
  8.79623035317450910E-03  9.00831315296037570E-03  9.22544272318295312E-03
  9.44773601582239546E-03  9.67531256593318414E-03  9.90829454379218467E-03
  1.01468068079104117E-02  1.03909769589152802E-02  1.06409353943096290E-02
  1.08968153641137155E-02  1.11587530273956556E-02  1.14268875096958274E-02
  1.17013609613500370E-02  1.19823186167161751E-02  1.22699088543081879E-02
  1.25642832578411068E-02  1.28655966781902470E-02  1.31740072962669690E-02
  1.34896766868132616E-02  1.38127698831163239E-02  1.41434554426441636E-02
  1.44819055136021883E-02  1.48282959024103340E-02  1.51828061420994607E-02
  1.55456195616249637E-02  1.59169233560948545E-02  1.62969086579085980E-02
  1.66857706088021258E-02  1.70837084327937518E-02  1.74909255100244264E-02
  1.79076294514850833E-02  1.83340321746224069E-02  1.87703499798136907E-02
  1.92168036277000319E-02  1.96736184173659304E-02  2.01410242653521816E-02
  2.06192557854877716E-02  2.11085523695246913E-02  2.16091582685589909E-02
  2.21213226752189109E-02  2.26452998066002734E-02  2.31813489879272583E-02
  2.37297347369151909E-02  2.42907268488102707E-02  2.48646004820793701E-02
  2.54516362447211666E-02  2.60521202811678891E-02  2.66663443597454780E-02
  2.72946059606568522E-02  2.79372083644521679E-02  2.85944607409466256E-02
  2.92666782385447612E-02  2.99541820739276689E-02  3.06572996220568182E-02
  3.13763645064461805E-02  3.21117166896515635E-02  3.28637025639226116E-02
  3.36326750419618375E-02  3.44189936477300937E-02  3.52230246072369121E-02
  3.60451409392496258E-02  3.68857225458525673E-02  3.77451563027849449E-02
  3.86238361494811860E-02  3.95221631787362263E-02  4.04405457259124496E-02
  4.13793994576027516E-02  4.23391474596604075E-02  4.33202203245015779E-02
  4.43230562375835566E-02  4.53481010629570858E-02  4.63958084277866847E-02
  4.74666398057296893E-02  4.85610645990590256E-02  4.96795602194107372E-02
  5.08226121670340217E-02  5.19907141084132718E-02  5.31843679521315157E-02
  5.44040839228356957E-02  5.56503806331605858E-02  5.69237851534646622E-02
  5.82248330792218549E-02  5.95540685959131816E-02  6.09120445412504527E-02
  6.22993224645649948E-02  6.37164726831837419E-02  6.51640743356105695E-02
  6.66427154313275066E-02  6.81529928970183024E-02  6.96955126190190455E-02
  7.12708894817849770E-02  7.28797474021643799E-02  7.45227193592583326E-02
  7.62004474196418258E-02  7.79135827577137619E-02  7.96627856709352100E-02
  8.14487255897134999E-02  8.32720810816748175E-02  8.51335398500697865E-02
  8.70337987260413060E-02  8.89735636544844166E-02  9.09535496732136184E-02
  9.29744808851513671E-02  9.50370904232421543E-02  9.71421204077868305E-02
  9.92903218958906125E-02  1.01482454822703433E-01  1.03719287934130822E-01
  1.06001598710679643E-01  1.08330173282103245E-01  1.10705806332494619E-01
  1.13129300995475968E-01  1.15601468739123997E-01  1.18123129240257960E-01
  1.20695110247721463E-01  1.23318247434267975E-01  1.25993384236666700E-01
  1.28721371683628960E-01  1.31503068211152263E-01  1.34339339464876389E-01
  1.37231058089029245E-01  1.40179103501548608E-01  1.43184361654945441E-01
  1.46247724782481492E-01  1.49370091129218313E-01  1.52552364667497470E-01
  1.55795454796403110E-01  1.59100276024753101E-01  1.62467747637167204E-01
  1.65898793342745265E-01  1.69394340905901525E-01  1.72955321758880509E-01
  1.76582670595495816E-01  1.80277324945616130E-01  1.84040224729932200E-01
  1.87872311794533065E-01  1.91774529424821372E-01  1.95747821838301028E-01
  1.99793133655764954E-01  2.03911409350423872E-01  2.08103592674510979E-01
  2.12370626062903772E-01  2.16713450013316239E-01  2.21133002442607474E-01
  2.25630218018774004E-01  2.30206027468189051E-01  2.34861356857674786E-01
  2.39597126850980779E-01  2.44414251939276794E-01  2.49313639645273422E-01
  2.54296189700589426E-01  2.59362793196014962E-01  2.64514331704318151E-01
  2.69751676375279748E-01  2.75075687002640401E-01  2.80487211062686426E-01
  2.85987082724202313E-01  2.91576121829556667E-01  2.97255132846712899E-01
  3.03024903791967337E-01  3.08886205123275082E-01  3.14839788604023396E-01
  3.20886386137170909E-01  3.27026708569688629E-01  3.33261444467283729E-01
  3.39591258859422429E-01  3.46016791954705472E-01  3.52538657826705404E-01
  3.59157443070391713E-01  3.65873705429352825E-01  3.72687972394037226E-01
  3.79600739771310314E-01  3.86612470225664695E-01  3.93723591792479066E-01
  4.00934496363782589E-01  4.08245538147024967E-01  4.15657032097442036E-01
  4.23169252324636647E-01  4.30782430474090205E-01  4.38496754084373663E-01
  4.46312364920896154E-01  4.54229357287121660E-01  4.62247776314254954E-01
  4.70367616230456420E-01  4.78588818610713174E-01  4.86911270608676172E-01
  4.95334803171780969E-01  5.03859189241074756E-01  5.12484141937310622E-01
  5.21209312734918107E-01  5.30034289625636146E-01  5.38958595273650309E-01
  5.47981685164248611E-01  5.57102945748107703E-01  5.66321692583481973E-01
  5.75637168478708494E-01  5.85048541637582797E-01  5.94554903810363244E-01
  6.04155268453288374E-01  6.13848568899728608E-01  6.23633656546247139E-01
  6.33509299057080200E-01  6.43474178590749291E-01  6.53526890052737786E-01
  6.63665939378416558E-01  6.73889741850590918E-01  6.84196620456327453E-01
  6.94584804287893820E-01  7.05052426992884063E-01  7.15597525278783841E-01
  7.26218037477375122E-01  7.36911802174507247E-01  7.47676556910781276E-01
  7.58509936958717601E-01  7.69409474181816821E-01  7.80372595980454054E-01
  7.91396624329518628E-01  8.02478774911921322E-01  8.13616156351332886E-01
  8.24805769546491541E-01  8.36044507108245405E-01  8.47329152898943505E-01
  8.58656381672129987E-01  8.70022758808489782E-01  8.81424740141883989E-01
  8.92858671867048370E-01  9.04320790518191253E-01  9.15807223005549953E-01
  9.27313986694899728E-01  9.38836989513422537E-01  9.50372030064275952E-01
  9.61914797731899696E-01  9.73460872760750773E-01  9.85005726291898531E-01
  9.96544720344886170E-01  1.00807310773647063E+00  1.01958603193339492E+00
  1.03107852684296519E+00  1.04254551655286098E+00  1.05398181503998423E+00
  1.06538212587686232E+00  1.07674104197295195E+00  1.08805304539653069E+00
  1.09931250733053165E+00  1.11051368822155294E+00  1.12165073818657568E+00
  1.13271769774426345E+00  1.14370849893780280E+00  1.15461696691373938E+00
  1.16543682201559329E+00  1.17616168244227359E+00  1.18678506750940294E+00
  1.19730040153704098E+00  1.20770101837050703E+00  1.21798016652311758E+00
  1.22813101491184784E+00  1.23814665914054012E+00  1.24802012827185216E+00
  1.25774439201953392E+00  1.26731236828786931E+00  1.27671693098523042E+00
  1.28595091804345074E+00  1.29500713958330071E+00  1.30387838617754226E+00
  1.31255743717559437E+00  1.32103706906639484E+00  1.32931006386758122E+00
  1.33736921753870464E+00  1.34520734842347744E+00  1.35281730573080461E+00
  1.36019197806670733E+00  1.36732430202944499E+00  1.37420727087834971E+00
  1.38083394328487707E+00  1.38719745217036872E+00  1.39329101363122532E+00
  1.39910793594826965E+00  1.40464162867333586E+00  1.40988561178278071E+00
  1.41483352488474701E+00  1.41947913646470369E+00  1.42381635315201316E+00
  1.42783922898906468E+00  1.43154197468372302E+00  1.43491896682550379E+00
  1.43796475704585713E+00  1.44067408110318462E+00  1.44304186787365829E+00
  1.44506324822947829E+00  1.44673356378689499E+00  1.44804837550701415E+00
  1.44900347213309932E+00  1.44959487844885482E+00  1.44981886334284171E+00
  1.44967194766481788E+00  1.44915091186043310E+00  1.44825280337126228E+00
  1.44697494378756697E+00  1.44531493574181158E+00  1.44327066953205807E+00
  1.44084032946350726E+00  1.43802239989763114E+00  1.43481567099865548E+00
  1.43121924416747248E+00  1.42723253715338050E+00  1.42285528883438905E+00
  1.41808756365709598E+00  1.41292975572743007E+00  1.40738259254377729E+00
  1.40144713836422974E+00  1.39512479719985660E+00  1.38841731542603219E+00
  1.38132678400396669E+00  1.37385564030457674E+00  1.36600666952688998E+00
  1.35778300570303623E+00  1.34918813228181045E+00  1.34022588228255723E+00
  1.33090043801088709E+00  1.32121633032740138E+00  1.31117843746020513E+00
  1.30079198335154000E+00  1.29006253552831951E+00  1.27899600248566081E+00
  1.26759863057121969E+00  1.25587700036079153E+00  1.24383802251089182E+00
  1.23148893307437102E+00  1.21883728826559778E+00  1.20589095866062501E+00
  1.19265812281736516E+00  1.17914726030048844E+00  1.16536714409576514E+00
  1.15132683239879596E+00  1.13703565976370857E+00  1.12250322759854848E+00
  1.10773939399566523E+00  1.09275426288778510E+00  1.07755817252349462E+00
  1.06216168325979310E+00  1.04657556467427337E+00  1.03081078200538445E+00
  1.01487848193635077E+00  9.98789977745990543E-01  9.82556733859511811E-01
  9.66190349843261242E-01  9.49702543896470130E-01  9.33105135907758343E-01
  9.16410030155731303E-01  8.99629197746426912E-01  8.82774658892988673E-01
  8.65858465161008839E-01  8.48892681809833682E-01  8.31889370373944281E-01
  8.14860571640754872E-01  7.97818289189461516E-01  7.80774473662036783E-01
  7.63741007940409555E-01  7.46729693401929517E-01  7.29752237415899341E-01
  7.12820242224434186E-01  6.95945195316288290E-01  6.79138461346838196E-01
  6.62411275573345337E-01  6.45774738653180913E-01  6.29239812485357541E-01
  6.12817316555699598E-01  5.96517923973448716E-01  5.80352156073044467E-01
  5.64330374129061729E-01  5.48462766449354433E-01  5.32759328953924194E-01
  5.17229837422083283E-01  5.01883810012564546E-01  4.86730459521291015E-01
  4.71778636160748222E-01  4.57036763330947282E-01  4.42512770670532241E-01
  4.28214030248668387E-01  4.14147302666042105E-01  4.00318699677740308E-01
  3.86733668521517415E-01  3.73397000505380272E-01  3.60312862988808547E-01
  3.47484850385974098E-01  3.34916047060691779E-01  3.22609093672996616E-01
  3.10566248977239667E-01  2.98789441029392699E-01  2.87280304566261580E-01
  2.76040204147935730E-01  2.65070244845812375E-01  2.54371273500536454E-01
  2.43943873904646891E-01  2.33788358939150703E-01  2.23904762026648468E-01
  2.14292829517119643E-01  2.04952014959493001E-01  1.95881475703260893E-01
  1.87080071927152036E-01  1.78546367980681742E-01  1.70278635814068241E-01
  1.62274860226017698E-01  1.54532745655871218E-01  1.47049724266661658E-01
  1.39822965092538304E-01  1.32849384056640624E-01  1.26125654697009898E-01
  1.19648219466915659E-01  1.13413301500949221E-01  1.07416916759177750E-01
  1.01654886478410644E-01  9.61228498725801850E-02  9.08162770336860964E-02
  8.57304819912366040E-02  8.08606358921410834E-02  7.62017802650728215E-02
  7.17488403340053038E-02  6.74966383453206586E-02  6.34399068720033904E-02
  5.95733020573282201E-02  5.58914167593278569E-02  5.23887935564317855E-02
  4.90599375740663132E-02  4.58993290918488644E-02  4.29014358912774910E-02
  4.00607253050681289E-02  3.73716759301962118E-02  3.48287889647915377E-02
  3.24265991378954246E-02  3.01596851992579594E-02  2.80226799391957125E-02
  2.60102797117505134E-02  2.41172534374356623E-02  2.23384510650299593E-02
  2.06688114751589283E-02  1.91033698117431643E-02  1.76372642307388167E-02
  1.62657420589442867E-02  1.49841653589288110E-02  1.37880158993656139E-02
  1.26728995331689114E-02  1.16345499888271097E-02  1.06688320831893457E-02
  9.77174436665140776E-03  8.93942121422731419E-03  8.16813437831089353E-03
  7.45429402111779174E-03  6.79444924670517727E-03  6.18528815421310815E-03
  5.62363743553072164E-03  5.10646154195630760E-03  4.63086144602812503E-03
  4.19407302303055531E-03  3.79346508065199397E-03  3.42653706497887635E-03
  3.09091647021836249E-03  2.78435598015964883E-03  2.50473036930073641E-03
  2.25003319130438447E-03  2.01837328202766376E-03  1.80797110379214698E-03
  1.61715495685016940E-03  1.44435708317333243E-03  1.28810968673308246E-03
  1.14704089339850166E-03  1.01987067244306193E-03  9.05406740445128155E-04
  8.02540467103430937E-04  7.10242801177154168E-04  6.27560233417145301E-04
  5.53610811990056851E-04  4.87580224522675832E-04  4.28717959521565726E-04
  3.76333558561465706E-04  3.29792969295908541E-04  2.88515008037241701E-04
  2.51967939494924425E-04  2.19666179610316183E-04  1.91167126576377534E-04
  1.66068124286237860E-04  1.44003560895701653E-04  1.24642104339630337E-04
  1.07684075709347640E-04  9.28589605228975860E-05  7.99230571133150271E-05
  6.86572606230241556E-05  5.88649804255769439E-05  5.03701881989436056E-05
  4.30155933470088557E-05  3.66609420064611079E-05  3.11814354834370972E-05
  2.64662636359271526E-05  2.24172484515907512E-05  1.89475928634084415E-05
  1.59807296942205941E-05  1.34492655222556729E-05  1.12940142093876768E-05
  9.46311482817129979E-06  7.91122875861957843E-06  6.59881079703966944E-06
  5.49144922292860867E-06  4.55926990772642129E-06  3.77639968803763547E-06
  3.12048440179369960E-06  2.57225722013851546E-06  2.11515306846273251E-06
  1.73496515645388063E-06  1.41953985992136113E-06  1.15850642167122607E-06
  9.43038164189507174E-07  7.65642131044733365E-07  6.19974294739994583E-07
  5.00677684487323754E-07  4.03240996573077680E-07  3.23875451414539064E-07
  2.59407854092775375E-07  2.07187998335179972E-07  1.65008727061660512E-07
  1.31037125344683661E-07  1.03755473773882600E-07  8.19107317204621391E-08
  6.44714509556685225E-08  5.05911406920561641E-08  3.95772156818144229E-08
  3.08647598943337466E-08  2.39944299380452088E-08  1.85939053268085883E-08
  1.43623671890179757E-08  1.10575536945195435E-08  8.48500100938601497E-09
  6.48913091542637640E-09  4.94589337507516715E-09  3.75671378688302388E-09
  2.84353101700140162E-09  2.14474405231698276E-09  1.61191276156799236E-09
  1.20708220479606165E-09  9.00620602771708652E-10  6.69478840754169568E-10
  4.95794579314790395E-10  3.65776993483806533E-10  2.68819145732313258E-10
  1.96794275906142594E-10  1.43500093217578891E-10  1.04221687708363486E-10
  7.53891237076303977E-11  5.43102964978064117E-11  3.89633665022300937E-11
  2.78361554918269045E-11  1.98024028218666743E-11  1.40268280648355796E-11
  9.89260805383025082E-12  6.94621782762216599E-12  4.85566246166647067E-12
  3.37899075869014823E-12  2.34066663829658951E-12  1.61391807858126812E-12
  1.10761229440752223E-12  7.56542082574276190E-13  5.14270738373273526E-13
  3.47886815273357993E-13  2.34177549512471205E-13  1.56850909132681118E-13
  1.04528890653872020E-13  6.93052025772808147E-14  4.57138553901939495E-14
  2.99953661731223348E-14  1.95774459521763231E-14  1.27094043066187941E-14
  8.20601867876267898E-15  5.26924554258892730E-15  3.36467488795986707E-15
  2.13641799045658922E-15  1.34879862685209098E-15  8.46632021146078565E-16
  5.28320496738080552E-16  3.27735527572037440E-16  2.02088039953947833E-16
  1.23855720663165250E-16  7.54426314381946943E-17  4.56677265652668194E-17
  2.74700749159453281E-17  1.64185134648790417E-17  9.74981946113010613E-18
  5.75191997486530272E-18  3.37090830344313705E-18  1.96228801694704917E-18
  1.13455010370358302E-18  6.51467360345125178E-19  3.71477198582216200E-19
  2.10331424588915895E-19  1.18241562811893838E-19  6.59919791932931657E-20
  3.65618055359582902E-20  2.01066437730506151E-20  1.09745433615571260E-20
  5.94466222556749737E-21  3.19536261792553215E-21  1.70420628359174826E-21
   </PP_GIPAW_CORE_ORBITAL.3>
  </PP_GIPAW_CORE_ORBITALS>
 </PP_GIPAW>
</UPF> 
